%Mem = 2GB
%nproc=16
# b3lyp/6-31g* td 

Butadiene tddft 

0 1
C         11.66000       11.11000       11.10000 
H         11.67000       10.20000       11.69000 
C         10.55000       12.04000       11.21000 
H         10.60000       12.85000       10.49000 
C          9.67000       12.03000       12.18000 
H          9.64000       11.18000       12.86000 
H          8.75000       12.60000       12.10000 
C         12.66000       11.20000       10.24000 
H         12.81000       12.01000        9.52000 
H         13.37000       10.38000       10.23000 
  
C         15.58000       19.57000       15.46000 -0.302700
H         15.31000       18.64000       14.96000 0.00070
Cl        17.16000       20.16000       14.75000 0.30060
Cl        14.25000       20.80000       15.21000 0.30060
Cl        15.83000       19.25000       17.22000 0.30060
C          9.55000        6.85000       11.31000 -0.302700
H         10.36000        6.71000       10.59000 0.00070
Cl        10.23000        7.77000       12.69000 0.30060
Cl         8.15000        7.73000       10.73000 0.30060
Cl         8.97000        5.27000       11.88000 0.30060
C          5.50000       15.28000       10.58000 -0.302700
H          5.34000       14.67000        9.68000 0.00070
Cl         6.65000       14.64000       11.74000 0.30060
Cl         6.14000       16.73000        9.82000 0.30060
Cl         3.95000       15.59000       11.38000 0.30060
C          3.18000       13.31000       16.36000 -0.302700
H          3.49000       12.87000       17.31000 0.00070
Cl         4.01000       14.95000       16.29000 0.30060
Cl         3.52000       12.10000       15.02000 0.30060
Cl         1.40000       13.51000       16.38000 0.30060
C         11.87000       15.16000       15.02000 -0.302700
H         11.22000       15.50000       14.21000 0.00070
Cl        12.38000       13.49000       14.65000 0.30060
Cl        13.31000       16.25000       15.09000 0.30060
Cl        10.82000       15.35000       16.49000 0.30060
C          6.23000       17.66000       15.09000 -0.302700
H          5.90000       16.97000       14.30000 0.00070
Cl         7.04000       18.96000       14.24000 0.30060
Cl         5.03000       18.37000       16.11000 0.30060
Cl         7.43000       16.60000       16.00000 0.30060
C         15.64000       15.11000        8.86000 -0.302700
H         15.54000       14.66000        7.87000 0.00070
Cl        17.38000       15.24000        9.07000 0.30060
Cl        14.65000       16.51000        8.89000 0.30060
Cl        14.88000       13.85000        9.83000 0.30060
C         18.02000        7.35000        9.13000 -0.302700
H         18.04000        6.34000        8.72000 0.00070
Cl        18.73000        8.56000        7.91000 0.30060
Cl        16.36000        7.84000        9.54000 0.30060
Cl        19.04000        7.34000       10.59000 0.30060
C          6.34000       12.05000       19.20000 -0.302700
H          6.85000       11.81000       20.14000 0.00070
Cl         7.27000       11.40000       17.86000 0.30060
Cl         4.73000       11.51000       19.37000 0.30060
Cl         6.23000       13.82000       19.34000 0.30060
C         13.02000        5.41000       15.70000 -0.302700
H         12.59000        5.64000       14.72000 0.00070
Cl        11.57000        5.55000       16.82000 0.30060
Cl        13.44000        3.69000       15.79000 0.30060
Cl        14.27000        6.55000       16.05000 0.30060
C         14.27000       11.57000       20.45000 -0.302700
H         13.41000       11.59000       19.79000 0.00070
Cl        15.20000       10.01000       20.17000 0.30060
Cl        15.15000       13.02000       19.84000 0.30060
Cl        13.85000       11.75000       22.17000 0.30060
C         11.16000        1.26000       13.82000 -0.302700
H         11.55000        1.18000       14.84000 0.00070
Cl        10.13000        2.69000       13.78000 0.30060
Cl        12.63000        1.33000       12.83000 0.30060
Cl        10.22000       -0.20000       13.60000 0.30060
C         12.74000        4.91000        3.01000 -0.302700
H         12.23000        4.03000        2.63000 0.00070
Cl        12.57000        4.73000        4.79000 0.30060
Cl        14.43000        4.89000        2.39000 0.30060
Cl        11.77000        6.32000        2.37000 0.30060
C         14.45000       22.37000        9.45000 -0.302700
H         14.89000       22.34000        8.45000 0.00070
Cl        13.36000       23.76000        9.40000 0.30060
Cl        13.43000       21.00000        9.83000 0.30060
Cl        15.55000       22.70000       10.84000 0.30060
C         10.43000       13.49000        2.29000 -0.302700
H         10.92000       12.65000        2.78000 0.00070
Cl         9.79000       14.47000        3.63000 0.30060
Cl        11.73000       14.41000        1.41000 0.30060
Cl         9.12000       12.98000        1.25000 0.30060
C         13.09000        4.91000        8.59000 -0.302700
H         13.33000        4.72000        7.54000 0.00070
Cl        13.11000        6.62000        8.94000 0.30060
Cl        11.49000        4.13000        8.69000 0.30060
Cl        14.27000        3.86000        9.40000 0.30060
C         18.20000       12.52000        5.42000 -0.302700
H         18.56000       13.39000        4.85000 0.00070
Cl        18.56000       11.18000        4.28000 0.30060
Cl        19.14000       12.32000        6.88000 0.30060
Cl        16.47000       12.81000        5.68000 0.30060
C          5.52000        2.67000       12.39000 -0.302700
H          5.56000        1.60000       12.63000 0.00070
Cl         4.02000        3.31000       11.71000 0.30060
Cl         6.17000        3.62000       13.77000 0.30060
Cl         6.76000        2.70000       11.09000 0.30060
C         11.15000        9.18000       16.92000 -0.302700
H         11.71000        8.37000       17.38000 0.00070
Cl        12.35000        9.67000       15.68000 0.30060
Cl         9.64000        8.58000       16.18000 0.30060
Cl        10.92000       10.35000       18.23000 0.30060
C         15.65000       10.12000        2.84000 -0.302700
H         15.95000       10.68000        3.73000 0.00070
Cl        14.10000       10.74000        2.38000 0.30060
Cl        16.85000       10.10000        1.51000 0.30060
Cl        15.37000        8.38000        3.25000 0.30060
C         18.40000       11.53000       16.86000 -0.302700
H         18.71000       11.41000       15.82000 0.00070
Cl        19.16000       12.96000       17.62000 0.30060
Cl        16.63000       11.80000       16.74000 0.30060
Cl        18.87000       10.08000       17.76000 0.30060
C         17.00000        4.01000       12.95000 -0.302700
H         17.99000        4.39000       13.23000 0.00070
Cl        16.03000        5.35000       12.31000 0.30060
Cl        17.21000        2.65000       11.74000 0.30060
Cl        16.27000        3.37000       14.47000 0.30060
C         20.50000       10.31000       11.19000 -0.302700
H         20.27000        9.37000       10.69000 0.00070
Cl        20.61000       10.19000       12.95000 0.30060
Cl        22.16000       10.66000       10.52000 0.30060
Cl        19.32000       11.54000       10.72000 0.30060
C         11.57000       18.90000        5.44000 -0.302700
H         12.16000       19.45000        4.70000 0.00070
Cl        11.32000       17.28000        4.70000 0.30060
Cl        12.68000       19.01000        6.95000 0.30060
Cl        10.01000       19.72000        5.47000 0.30060
C         10.57000       17.18000       11.51000 -0.302700
H          9.97000       16.71000       12.29000 0.00070
Cl        10.99000       18.88000       11.95000 0.30060
Cl        12.00000       16.06000       11.16000 0.30060
Cl         9.40000       17.22000       10.13000 0.30060
C          9.10000        9.60000        3.94000 -0.302700
H          9.63000        9.39000        4.87000 0.00070
Cl         7.87000        8.39000        3.66000 0.30060
Cl         8.28000       11.06000        4.12000 0.30060
Cl        10.35000        9.75000        2.70000 0.30060
C          7.30000       13.62000        7.18000 -0.302700
H          7.46000       13.15000        6.21000 0.00070
Cl         8.22000       15.13000        7.34000 0.30060
Cl         5.50000       13.88000        7.05000 0.30060
Cl         7.80000       12.47000        8.48000 0.30060
C          5.52000        3.94000        7.55000 -0.302700
H          4.88000        3.51000        8.33000 0.00070
Cl         4.89000        3.35000        5.99000 0.30060
Cl         5.35000        5.73000        7.75000 0.30060
Cl         7.28000        3.45000        7.78000 0.30060
C          3.71000       10.64000        9.36000 -0.302700
H          3.05000       10.31000       10.16000 0.00070
Cl         5.33000       11.10000        9.96000 0.30060
Cl         3.79000        9.27000        8.27000 0.30060
Cl         2.88000       11.93000        8.51000 0.30060
C          5.72000        7.57000       20.61000 -0.302700
H          6.44000        7.16000       21.32000 0.00070
Cl         4.43000        6.46000       20.16000 0.30060
Cl         5.07000        8.98000       21.43000 0.30060
Cl         6.60000        8.11000       19.17000 0.30060
C         10.96000       15.15000       21.34000 -0.302700
H         11.43000       14.94000       22.31000 0.00070
Cl        11.04000       13.70000       20.36000 0.30060
Cl         9.27000       15.54000       21.65000 0.30060
Cl        11.75000       16.46000       20.43000 0.30060
C          4.86000       19.34000        7.92000 -0.302700
H          5.18000       18.33000        7.63000 0.00070
Cl         4.71000       20.37000        6.45000 0.30060
Cl         3.18000       19.00000        8.51000 0.30060
Cl         5.97000       19.95000        9.19000 0.30060
C         15.33000        9.33000       13.18000 -0.302700
H         14.96000        9.80000       14.09000 0.00070
Cl        14.18000        8.33000       12.28000 0.30060
Cl        15.69000       10.80000       12.12000 0.30060
Cl        16.80000        8.46000       13.76000 0.30060
C         17.21000       15.47000       13.94000 -0.302700
H         16.81000       14.55000       13.50000 0.00070
Cl        16.94000       15.42000       15.66000 0.30060
Cl        18.95000       15.36000       13.61000 0.30060
Cl        16.47000       16.90000       13.18000 0.30060
C         18.00000       18.71000        9.91000 -0.302700
H         17.28000       17.89000        9.82000 0.00070
Cl        17.85000       19.59000        8.41000 0.30060
Cl        17.55000       19.80000       11.24000 0.30060
Cl        19.63000       18.00000       10.04000 0.30060
C         11.26000        9.72000        7.07000 -0.302700
H         11.97000        9.89000        7.88000 0.00070
Cl        10.00000        8.64000        7.70000 0.30060
Cl        10.54000       11.35000        6.76000 0.30060
Cl        12.26000        9.01000        5.79000 0.30060
C          2.74000        8.44000       16.53000 -0.302700
H          2.50000        7.46000       16.95000 0.00070
Cl         2.80000        8.30000       14.73000 0.30060
Cl         1.51000        9.54000       17.24000 0.30060
Cl         4.39000        9.00000       16.83000 0.30060

%Mem = 2GB
%nproc=16
# b3lyp/6-31g* td 

Butadiene tddft 

0 1
C         11.66000       11.11000       11.10000 
H         11.67000       10.20000       11.69000 
C         10.55000       12.04000       11.21000 
H         10.60000       12.85000       10.49000 
C          9.67000       12.03000       12.18000 
H          9.64000       11.18000       12.86000 
H          8.75000       12.60000       12.10000 
C         12.66000       11.20000       10.24000 
H         12.81000       12.01000        9.52000 
H         13.37000       10.38000       10.23000 
  
C         15.58000       19.57000       15.46000 -0.302700
H         15.31000       18.64000       14.96000 0.00070
Cl        17.16000       20.16000       14.75000 0.30060
Cl        14.25000       20.80000       15.21000 0.30060
Cl        15.83000       19.25000       17.22000 0.30060
C          9.55000        6.85000       11.31000 -0.302700
H         10.36000        6.71000       10.59000 0.00070
Cl        10.23000        7.77000       12.69000 0.30060
Cl         8.15000        7.73000       10.73000 0.30060
Cl         8.97000        5.27000       11.88000 0.30060
C          5.50000       15.28000       10.58000 -0.302700
H          5.34000       14.67000        9.68000 0.00070
Cl         6.65000       14.64000       11.74000 0.30060
Cl         6.14000       16.73000        9.82000 0.30060
Cl         3.95000       15.59000       11.38000 0.30060
C          3.18000       13.31000       16.36000 -0.302700
H          3.49000       12.87000       17.31000 0.00070
Cl         4.01000       14.95000       16.29000 0.30060
Cl         3.52000       12.10000       15.02000 0.30060
Cl         1.40000       13.51000       16.38000 0.30060
C         11.87000       15.16000       15.02000 -0.302700
H         11.22000       15.50000       14.21000 0.00070
Cl        12.38000       13.49000       14.65000 0.30060
Cl        13.31000       16.25000       15.09000 0.30060
Cl        10.82000       15.35000       16.49000 0.30060
C          6.23000       17.66000       15.09000 -0.302700
H          5.90000       16.97000       14.30000 0.00070
Cl         7.04000       18.96000       14.24000 0.30060
Cl         5.03000       18.37000       16.11000 0.30060
Cl         7.43000       16.60000       16.00000 0.30060
C         15.64000       15.11000        8.86000 -0.302700
H         15.54000       14.66000        7.87000 0.00070
Cl        17.38000       15.24000        9.07000 0.30060
Cl        14.65000       16.51000        8.89000 0.30060
Cl        14.88000       13.85000        9.83000 0.30060
C         18.02000        7.35000        9.13000 -0.302700
H         18.04000        6.34000        8.72000 0.00070
Cl        18.73000        8.56000        7.91000 0.30060
Cl        16.36000        7.84000        9.54000 0.30060
Cl        19.04000        7.34000       10.59000 0.30060
C          6.34000       12.05000       19.20000 -0.302700
H          6.85000       11.81000       20.14000 0.00070
Cl         7.27000       11.40000       17.86000 0.30060
Cl         4.73000       11.51000       19.37000 0.30060
Cl         6.23000       13.82000       19.34000 0.30060
C         13.02000        5.41000       15.70000 -0.302700
H         12.59000        5.64000       14.72000 0.00070
Cl        11.57000        5.55000       16.82000 0.30060
Cl        13.44000        3.69000       15.79000 0.30060
Cl        14.27000        6.55000       16.05000 0.30060
C         14.27000       11.57000       20.45000 -0.302700
H         13.41000       11.59000       19.79000 0.00070
Cl        15.20000       10.01000       20.17000 0.30060
Cl        15.15000       13.02000       19.84000 0.30060
Cl        13.85000       11.75000       22.17000 0.30060
C         11.16000        1.26000       13.82000 -0.302700
H         11.55000        1.18000       14.84000 0.00070
Cl        10.13000        2.69000       13.78000 0.30060
Cl        12.63000        1.33000       12.83000 0.30060
Cl        10.22000       -0.20000       13.60000 0.30060
C         12.74000        4.91000        3.01000 -0.302700
H         12.23000        4.03000        2.63000 0.00070
Cl        12.57000        4.73000        4.79000 0.30060
Cl        14.43000        4.89000        2.39000 0.30060
Cl        11.77000        6.32000        2.37000 0.30060
C         14.45000       22.37000        9.45000 -0.302700
H         14.89000       22.34000        8.45000 0.00070
Cl        13.36000       23.76000        9.40000 0.30060
Cl        13.43000       21.00000        9.83000 0.30060
Cl        15.55000       22.70000       10.84000 0.30060
C         10.43000       13.49000        2.29000 -0.302700
H         10.92000       12.65000        2.78000 0.00070
Cl         9.79000       14.47000        3.63000 0.30060
Cl        11.73000       14.41000        1.41000 0.30060
Cl         9.12000       12.98000        1.25000 0.30060
C         13.09000        4.91000        8.59000 -0.302700
H         13.33000        4.72000        7.54000 0.00070
Cl        13.11000        6.62000        8.94000 0.30060
Cl        11.49000        4.13000        8.69000 0.30060
Cl        14.27000        3.86000        9.40000 0.30060
C         18.20000       12.52000        5.42000 -0.302700
H         18.56000       13.39000        4.85000 0.00070
Cl        18.56000       11.18000        4.28000 0.30060
Cl        19.14000       12.32000        6.88000 0.30060
Cl        16.47000       12.81000        5.68000 0.30060
C          5.52000        2.67000       12.39000 -0.302700
H          5.56000        1.60000       12.63000 0.00070
Cl         4.02000        3.31000       11.71000 0.30060
Cl         6.17000        3.62000       13.77000 0.30060
Cl         6.76000        2.70000       11.09000 0.30060
C         11.15000        9.18000       16.92000 -0.302700
H         11.71000        8.37000       17.38000 0.00070
Cl        12.35000        9.67000       15.68000 0.30060
Cl         9.64000        8.58000       16.18000 0.30060
Cl        10.92000       10.35000       18.23000 0.30060
C         15.65000       10.12000        2.84000 -0.302700
H         15.95000       10.68000        3.73000 0.00070
Cl        14.10000       10.74000        2.38000 0.30060
Cl        16.85000       10.10000        1.51000 0.30060
Cl        15.37000        8.38000        3.25000 0.30060
C         18.40000       11.53000       16.86000 -0.302700
H         18.71000       11.41000       15.82000 0.00070
Cl        19.16000       12.96000       17.62000 0.30060
Cl        16.63000       11.80000       16.74000 0.30060
Cl        18.87000       10.08000       17.76000 0.30060
C         17.00000        4.01000       12.95000 -0.302700
H         17.99000        4.39000       13.23000 0.00070
Cl        16.03000        5.35000       12.31000 0.30060
Cl        17.21000        2.65000       11.74000 0.30060
Cl        16.27000        3.37000       14.47000 0.30060
C         20.50000       10.31000       11.19000 -0.302700
H         20.27000        9.37000       10.69000 0.00070
Cl        20.61000       10.19000       12.95000 0.30060
Cl        22.16000       10.66000       10.52000 0.30060
Cl        19.32000       11.54000       10.72000 0.30060
C         11.57000       18.90000        5.44000 -0.302700
H         12.16000       19.45000        4.70000 0.00070
Cl        11.32000       17.28000        4.70000 0.30060
Cl        12.68000       19.01000        6.95000 0.30060
Cl        10.01000       19.72000        5.47000 0.30060
C         10.57000       17.18000       11.51000 -0.302700
H          9.97000       16.71000       12.29000 0.00070
Cl        10.99000       18.88000       11.95000 0.30060
Cl        12.00000       16.06000       11.16000 0.30060
Cl         9.40000       17.22000       10.13000 0.30060
C          9.10000        9.60000        3.94000 -0.302700
H          9.63000        9.39000        4.87000 0.00070
Cl         7.87000        8.39000        3.66000 0.30060
Cl         8.28000       11.06000        4.12000 0.30060
Cl        10.35000        9.75000        2.70000 0.30060
C          7.30000       13.62000        7.18000 -0.302700
H          7.46000       13.15000        6.21000 0.00070
Cl         8.22000       15.13000        7.34000 0.30060
Cl         5.50000       13.88000        7.05000 0.30060
Cl         7.80000       12.47000        8.48000 0.30060
C          5.52000        3.94000        7.55000 -0.302700
H          4.88000        3.51000        8.33000 0.00070
Cl         4.89000        3.35000        5.99000 0.30060
Cl         5.35000        5.73000        7.75000 0.30060
Cl         7.28000        3.45000        7.78000 0.30060
C          3.71000       10.64000        9.36000 -0.302700
H          3.05000       10.31000       10.16000 0.00070
Cl         5.33000       11.10000        9.96000 0.30060
Cl         3.79000        9.27000        8.27000 0.30060
Cl         2.88000       11.93000        8.51000 0.30060
C          5.72000        7.57000       20.61000 -0.302700
H          6.44000        7.16000       21.32000 0.00070
Cl         4.43000        6.46000       20.16000 0.30060
Cl         5.07000        8.98000       21.43000 0.30060
Cl         6.60000        8.11000       19.17000 0.30060
C         10.96000       15.15000       21.34000 -0.302700
H         11.43000       14.94000       22.31000 0.00070
Cl        11.04000       13.70000       20.36000 0.30060
Cl         9.27000       15.54000       21.65000 0.30060
Cl        11.75000       16.46000       20.43000 0.30060
C          4.86000       19.34000        7.92000 -0.302700
H          5.18000       18.33000        7.63000 0.00070
Cl         4.71000       20.37000        6.45000 0.30060
Cl         3.18000       19.00000        8.51000 0.30060
Cl         5.97000       19.95000        9.19000 0.30060
C         15.33000        9.33000       13.18000 -0.302700
H         14.96000        9.80000       14.09000 0.00070
Cl        14.18000        8.33000       12.28000 0.30060
Cl        15.69000       10.80000       12.12000 0.30060
Cl        16.80000        8.46000       13.76000 0.30060
C         17.21000       15.47000       13.94000 -0.302700
H         16.81000       14.55000       13.50000 0.00070
Cl        16.94000       15.42000       15.66000 0.30060
Cl        18.95000       15.36000       13.61000 0.30060
Cl        16.47000       16.90000       13.18000 0.30060
C         18.00000       18.71000        9.91000 -0.302700
H         17.28000       17.89000        9.82000 0.00070
Cl        17.85000       19.59000        8.41000 0.30060
Cl        17.55000       19.80000       11.24000 0.30060
Cl        19.63000       18.00000       10.04000 0.30060
C         11.26000        9.72000        7.07000 -0.302700
H         11.97000        9.89000        7.88000 0.00070
Cl        10.00000        8.64000        7.70000 0.30060
Cl        10.54000       11.35000        6.76000 0.30060
Cl        12.26000        9.01000        5.79000 0.30060
C          2.74000        8.44000       16.53000 -0.302700
H          2.50000        7.46000       16.95000 0.00070
Cl         2.80000        8.30000       14.73000 0.30060
Cl         1.51000        9.54000       17.24000 0.30060
Cl         4.39000        9.00000       16.83000 0.30060

