%Mem = 2GB
%nproc=16
# b3lyp/6-31g* td 

Butadiene tddft 

0 1
C         12.27000       12.40000       11.09000 
H         12.85000       11.49000       11.16000 
C         10.84000       12.40000       11.55000 
H         10.17000       13.26000       11.55000 
C         10.28000       11.26000       11.94000 
H         10.83000       10.31000       11.94000 
H          9.21000       11.11000       11.95000 
C         12.68000       13.52000       10.47000 
H         11.99000       14.34000       10.30000 
H         13.70000       13.62000       10.12000 
  
C         12.95000       19.34000       15.77000 -0.302700
H         13.01000       18.53000       15.04000 0.00070
Cl        14.50000       20.36000       15.79000 0.30060
Cl        11.64000       20.52000       15.26000 0.30060
Cl        12.56000       18.71000       17.43000 0.30060
C          8.02000        6.83000       12.98000 -0.302700
H          8.01000        6.41000       11.96000 0.00070
Cl         9.65000        6.59000       13.54000 0.30060
Cl         7.47000        8.55000       12.64000 0.30060
Cl         6.79000        5.89000       13.88000 0.30060
C          3.59000       13.82000       12.67000 -0.302700
H          4.13000       13.05000       12.11000 0.00070
Cl         3.33000       12.94000       14.27000 0.30060
Cl         4.60000       15.24000       13.05000 0.30060
Cl         2.08000       14.15000       11.78000 0.30060
C          9.50000       14.44000       15.51000 -0.302700
H          9.06000       15.20000       14.85000 0.00070
Cl        10.99000       13.96000       14.68000 0.30060
Cl         9.84000       15.06000       17.15000 0.30060
Cl         8.53000       12.98000       15.55000 0.30060
C          4.46000       18.53000       14.95000 -0.302700
H          4.47000       17.92000       14.05000 0.00070
Cl         5.65000       19.81000       14.61000 0.30060
Cl         2.88000       19.16000       15.31000 0.30060
Cl         5.03000       17.47000       16.26000 0.30060
C         12.52000       17.44000        7.89000 -0.302700
H         11.45000       17.60000        8.04000 0.00070
Cl        12.58000       16.13000        6.64000 0.30060
Cl        13.16000       18.96000        7.20000 0.30060
Cl        13.47000       16.81000        9.29000 0.30060
C         15.77000        7.16000       10.22000 -0.302700
H         15.93000        6.67000        9.25000 0.00070
Cl        14.96000        8.81000       10.03000 0.30060
Cl        14.62000        6.14000       11.14000 0.30060
Cl        17.36000        7.18000       11.02000 0.30060
C          5.24000       13.67000       18.67000 -0.302700
H          6.14000       14.28000       18.76000 0.00070
Cl         5.38000       13.02000       17.02000 0.30060
Cl         5.51000       12.40000       19.85000 0.30060
Cl         3.78000       14.62000       18.82000 0.30060
C         11.40000        5.00000       16.59000 -0.302700
H         11.41000        4.99000       15.50000 0.00070
Cl         9.71000        5.28000       17.15000 0.30060
Cl        12.21000        3.40000       16.83000 0.30060
Cl        12.52000        6.31000       17.07000 0.30060
C         13.06000       12.36000       21.11000 -0.302700
H         12.10000       12.45000       20.61000 0.00070
Cl        13.68000       10.65000       21.02000 0.30060
Cl        14.24000       13.47000       20.47000 0.30060
Cl        12.54000       12.66000       22.84000 0.30060
C         20.50000       14.89000       10.22000 -0.302700
H         19.94000       13.94000       10.16000 0.00070
Cl        22.10000       14.62000        9.42000 0.30060
Cl        20.05000       16.28000        9.13000 0.30060
Cl        20.44000       15.47000       11.94000 0.30060
C          9.37000        1.82000       15.32000 -0.302700
H          9.81000        2.25000       16.23000 0.00070
Cl         9.39000        3.15000       14.21000 0.30060
Cl        10.24000        0.41000       14.76000 0.30060
Cl         7.72000        1.39000       15.78000 0.30060
C         18.08000       16.91000       16.88000 -0.302700
H         16.98000       16.92000       16.81000 0.00070
Cl        18.73000       18.39000       16.13000 0.30060
Cl        18.51000       16.60000       18.62000 0.30060
Cl        18.80000       15.53000       16.00000 0.30060
C         10.69000        5.17000        4.52000 -0.302700
H          9.99000        4.98000        3.70000 0.00070
Cl         9.88000        4.87000        6.04000 0.30060
Cl        12.13000        4.15000        4.44000 0.30060
Cl        11.19000        6.90000        4.36000 0.30060
C         13.81000       21.72000       10.61000 -0.302700
H         14.57000       21.22000       10.01000 0.00070
Cl        13.19000       23.14000        9.68000 0.30060
Cl        12.45000       20.58000       10.94000 0.30060
Cl        14.45000       22.39000       12.14000 0.30060
C          9.82000       11.65000        1.83000 -0.302700
H         10.74000       11.77000        1.25000 0.00070
Cl        10.09000       10.24000        2.89000 0.30060
Cl         9.65000       13.11000        2.79000 0.30060
Cl         8.40000       11.54000        0.72000 0.30060
C         11.32000        2.44000       10.34000 -0.302700
H         11.42000        1.40000       10.03000 0.00070
Cl        11.73000        3.19000        8.78000 0.30060
Cl         9.62000        2.65000       10.66000 0.30060
Cl        12.52000        2.77000       11.59000 0.30060
C         16.74000       13.05000        7.53000 -0.302700
H         16.88000       13.76000        6.71000 0.00070
Cl        17.31000       11.47000        7.03000 0.30060
Cl        17.69000       13.77000        8.86000 0.30060
Cl        15.05000       13.07000        8.01000 0.30060
C         10.18000        9.86000       17.95000 -0.302700
H         10.55000        8.96000       18.44000 0.00070
Cl        11.38000       11.09000       17.84000 0.30060
Cl         9.55000        9.30000       16.38000 0.30060
Cl         8.89000       10.40000       19.03000 0.30060
C         14.04000       10.98000        4.18000 -0.302700
H         15.05000       11.39000        4.10000 0.00070
Cl        13.18000       12.31000        4.95000 0.30060
Cl        13.54000       10.91000        2.48000 0.30060
Cl        14.02000        9.41000        5.07000 0.30060
C         16.58000       11.99000       17.59000 -0.302700
H         17.22000       12.16000       16.72000 0.00070
Cl        17.14000       13.20000       18.74000 0.30060
Cl        14.89000       12.04000       17.02000 0.30060
Cl        16.83000       10.41000       18.46000 0.30060
C         16.71000        4.13000       14.26000 -0.302700
H         17.16000        4.53000       13.34000 0.00070
Cl        15.02000        4.91000       14.20000 0.30060
Cl        16.68000        2.33000       14.12000 0.30060
Cl        17.86000        4.66000       15.52000 0.30060
C         19.09000       10.27000       12.05000 -0.302700
H         18.65000        9.51000       11.40000 0.00070
Cl        20.06000        9.37000       13.24000 0.30060
Cl        19.91000       11.49000       11.05000 0.30060
Cl        17.69000       11.07000       12.84000 0.30060
C          8.62000       17.37000        7.29000 -0.302700
H          7.54000       17.29000        7.11000 0.00070
Cl         9.32000       16.42000        5.90000 0.30060
Cl         9.37000       19.00000        7.13000 0.30060
Cl         8.95000       16.84000        8.96000 0.30060
C          9.15000       17.17000       12.20000 -0.302700
H          9.25000       17.53000       11.18000 0.00070
Cl         8.17000       18.42000       13.03000 0.30060
Cl         8.42000       15.55000       12.42000 0.30060
Cl        10.78000       17.03000       12.87000 0.30060
C         15.97000        6.45000        4.84000 -0.302700
H         15.56000        7.19000        4.15000 0.00070
Cl        17.53000        6.98000        5.49000 0.30060
Cl        14.81000        6.46000        6.22000 0.30060
Cl        16.07000        4.74000        4.22000 0.30060
C          7.02000        9.16000        5.64000 -0.302700
H          8.07000        9.00000        5.89000 0.00070
Cl         5.98000        8.32000        6.88000 0.30060
Cl         6.90000       10.90000        5.59000 0.30060
Cl         6.59000        8.32000        4.09000 0.30060
C          7.11000       12.76000        8.53000 -0.302700
H          6.85000       12.30000        7.57000 0.00070
Cl         8.85000       13.12000        8.39000 0.30060
Cl         6.17000       14.18000        8.96000 0.30060
Cl         6.87000       11.67000        9.93000 0.30060
C          6.33000        3.88000        9.59000 -0.302700
H          6.49000        3.16000       10.40000 0.00070
Cl         6.57000        2.84000        8.13000 0.30060
Cl         4.70000        4.74000        9.69000 0.30060
Cl         7.64000        5.09000        9.59000 0.30060
C          2.50000        8.14000       10.69000 -0.302700
H          1.87000        8.90000       11.15000 0.00070
Cl         1.64000        6.63000       10.99000 0.30060
Cl         2.75000        8.43000        8.99000 0.30060
Cl         4.04000        8.17000       11.65000 0.30060
C          3.78000       17.58000        9.77000 -0.302700
H          4.33000       16.68000        9.48000 0.00070
Cl         4.20000       18.66000        8.39000 0.30060
Cl         2.08000       17.45000       10.27000 0.30060
Cl         4.61000       18.19000       11.25000 0.30060
C         13.92000        9.08000       14.78000 -0.302700
H         13.57000        9.13000       15.82000 0.00070
Cl        12.69000        7.93000       14.05000 0.30060
Cl        13.96000       10.73000       14.03000 0.30060
Cl        15.59000        8.50000       14.72000 0.30060
C         14.45000       15.67000       13.67000 -0.302700
H         13.42000       15.54000       13.34000 0.00070
Cl        14.32000       15.87000       15.47000 0.30060
Cl        15.36000       14.27000       13.16000 0.30060
Cl        15.02000       17.18000       12.90000 0.30060
C         17.80000       19.88000       12.47000 -0.302700
H         16.90000       19.37000       12.81000 0.00070
Cl        17.45000       20.44000       10.77000 0.30060
Cl        18.27000       21.11000       13.62000 0.30060
Cl        19.02000       18.65000       12.43000 0.30060
C         10.55000        9.60000        8.79000 -0.302700
H         10.87000       10.46000        9.37000 0.00070
Cl         8.93000        8.95000        9.30000 0.30060
Cl        10.59000       10.10000        7.06000 0.30060
Cl        11.67000        8.33000        9.07000 0.30060
C          3.09000        8.80000       16.80000 -0.302700
H          3.09000        7.78000       16.41000 0.00070
Cl         1.46000        9.20000       17.39000 0.30060
Cl         4.46000        8.74000       18.00000 0.30060
Cl         3.69000        9.88000       15.54000 0.30060

%Mem = 2GB
%nproc=16
# b3lyp/6-31g* td 

Butadiene tddft 

0 1
C         12.27000       12.40000       11.09000 
H         12.85000       11.49000       11.16000 
C         10.84000       12.40000       11.55000 
H         10.17000       13.26000       11.55000 
C         10.28000       11.26000       11.94000 
H         10.83000       10.31000       11.94000 
H          9.21000       11.11000       11.95000 
C         12.68000       13.52000       10.47000 
H         11.99000       14.34000       10.30000 
H         13.70000       13.62000       10.12000 
  
C         12.95000       19.34000       15.77000 -0.302700
H         13.01000       18.53000       15.04000 0.00070
Cl        14.50000       20.36000       15.79000 0.30060
Cl        11.64000       20.52000       15.26000 0.30060
Cl        12.56000       18.71000       17.43000 0.30060
C          8.02000        6.83000       12.98000 -0.302700
H          8.01000        6.41000       11.96000 0.00070
Cl         9.65000        6.59000       13.54000 0.30060
Cl         7.47000        8.55000       12.64000 0.30060
Cl         6.79000        5.89000       13.88000 0.30060
C          3.59000       13.82000       12.67000 -0.302700
H          4.13000       13.05000       12.11000 0.00070
Cl         3.33000       12.94000       14.27000 0.30060
Cl         4.60000       15.24000       13.05000 0.30060
Cl         2.08000       14.15000       11.78000 0.30060
C          9.50000       14.44000       15.51000 -0.302700
H          9.06000       15.20000       14.85000 0.00070
Cl        10.99000       13.96000       14.68000 0.30060
Cl         9.84000       15.06000       17.15000 0.30060
Cl         8.53000       12.98000       15.55000 0.30060
C          4.46000       18.53000       14.95000 -0.302700
H          4.47000       17.92000       14.05000 0.00070
Cl         5.65000       19.81000       14.61000 0.30060
Cl         2.88000       19.16000       15.31000 0.30060
Cl         5.03000       17.47000       16.26000 0.30060
C         12.52000       17.44000        7.89000 -0.302700
H         11.45000       17.60000        8.04000 0.00070
Cl        12.58000       16.13000        6.64000 0.30060
Cl        13.16000       18.96000        7.20000 0.30060
Cl        13.47000       16.81000        9.29000 0.30060
C         15.77000        7.16000       10.22000 -0.302700
H         15.93000        6.67000        9.25000 0.00070
Cl        14.96000        8.81000       10.03000 0.30060
Cl        14.62000        6.14000       11.14000 0.30060
Cl        17.36000        7.18000       11.02000 0.30060
C          5.24000       13.67000       18.67000 -0.302700
H          6.14000       14.28000       18.76000 0.00070
Cl         5.38000       13.02000       17.02000 0.30060
Cl         5.51000       12.40000       19.85000 0.30060
Cl         3.78000       14.62000       18.82000 0.30060
C         11.40000        5.00000       16.59000 -0.302700
H         11.41000        4.99000       15.50000 0.00070
Cl         9.71000        5.28000       17.15000 0.30060
Cl        12.21000        3.40000       16.83000 0.30060
Cl        12.52000        6.31000       17.07000 0.30060
C         13.06000       12.36000       21.11000 -0.302700
H         12.10000       12.45000       20.61000 0.00070
Cl        13.68000       10.65000       21.02000 0.30060
Cl        14.24000       13.47000       20.47000 0.30060
Cl        12.54000       12.66000       22.84000 0.30060
C         20.50000       14.89000       10.22000 -0.302700
H         19.94000       13.94000       10.16000 0.00070
Cl        22.10000       14.62000        9.42000 0.30060
Cl        20.05000       16.28000        9.13000 0.30060
Cl        20.44000       15.47000       11.94000 0.30060
C          9.37000        1.82000       15.32000 -0.302700
H          9.81000        2.25000       16.23000 0.00070
Cl         9.39000        3.15000       14.21000 0.30060
Cl        10.24000        0.41000       14.76000 0.30060
Cl         7.72000        1.39000       15.78000 0.30060
C         18.08000       16.91000       16.88000 -0.302700
H         16.98000       16.92000       16.81000 0.00070
Cl        18.73000       18.39000       16.13000 0.30060
Cl        18.51000       16.60000       18.62000 0.30060
Cl        18.80000       15.53000       16.00000 0.30060
C         10.69000        5.17000        4.52000 -0.302700
H          9.99000        4.98000        3.70000 0.00070
Cl         9.88000        4.87000        6.04000 0.30060
Cl        12.13000        4.15000        4.44000 0.30060
Cl        11.19000        6.90000        4.36000 0.30060
C         13.81000       21.72000       10.61000 -0.302700
H         14.57000       21.22000       10.01000 0.00070
Cl        13.19000       23.14000        9.68000 0.30060
Cl        12.45000       20.58000       10.94000 0.30060
Cl        14.45000       22.39000       12.14000 0.30060
C          9.82000       11.65000        1.83000 -0.302700
H         10.74000       11.77000        1.25000 0.00070
Cl        10.09000       10.24000        2.89000 0.30060
Cl         9.65000       13.11000        2.79000 0.30060
Cl         8.40000       11.54000        0.72000 0.30060
C         11.32000        2.44000       10.34000 -0.302700
H         11.42000        1.40000       10.03000 0.00070
Cl        11.73000        3.19000        8.78000 0.30060
Cl         9.62000        2.65000       10.66000 0.30060
Cl        12.52000        2.77000       11.59000 0.30060
C         16.74000       13.05000        7.53000 -0.302700
H         16.88000       13.76000        6.71000 0.00070
Cl        17.31000       11.47000        7.03000 0.30060
Cl        17.69000       13.77000        8.86000 0.30060
Cl        15.05000       13.07000        8.01000 0.30060
C         10.18000        9.86000       17.95000 -0.302700
H         10.55000        8.96000       18.44000 0.00070
Cl        11.38000       11.09000       17.84000 0.30060
Cl         9.55000        9.30000       16.38000 0.30060
Cl         8.89000       10.40000       19.03000 0.30060
C         14.04000       10.98000        4.18000 -0.302700
H         15.05000       11.39000        4.10000 0.00070
Cl        13.18000       12.31000        4.95000 0.30060
Cl        13.54000       10.91000        2.48000 0.30060
Cl        14.02000        9.41000        5.07000 0.30060
C         16.58000       11.99000       17.59000 -0.302700
H         17.22000       12.16000       16.72000 0.00070
Cl        17.14000       13.20000       18.74000 0.30060
Cl        14.89000       12.04000       17.02000 0.30060
Cl        16.83000       10.41000       18.46000 0.30060
C         16.71000        4.13000       14.26000 -0.302700
H         17.16000        4.53000       13.34000 0.00070
Cl        15.02000        4.91000       14.20000 0.30060
Cl        16.68000        2.33000       14.12000 0.30060
Cl        17.86000        4.66000       15.52000 0.30060
C         19.09000       10.27000       12.05000 -0.302700
H         18.65000        9.51000       11.40000 0.00070
Cl        20.06000        9.37000       13.24000 0.30060
Cl        19.91000       11.49000       11.05000 0.30060
Cl        17.69000       11.07000       12.84000 0.30060
C          8.62000       17.37000        7.29000 -0.302700
H          7.54000       17.29000        7.11000 0.00070
Cl         9.32000       16.42000        5.90000 0.30060
Cl         9.37000       19.00000        7.13000 0.30060
Cl         8.95000       16.84000        8.96000 0.30060
C          9.15000       17.17000       12.20000 -0.302700
H          9.25000       17.53000       11.18000 0.00070
Cl         8.17000       18.42000       13.03000 0.30060
Cl         8.42000       15.55000       12.42000 0.30060
Cl        10.78000       17.03000       12.87000 0.30060
C         15.97000        6.45000        4.84000 -0.302700
H         15.56000        7.19000        4.15000 0.00070
Cl        17.53000        6.98000        5.49000 0.30060
Cl        14.81000        6.46000        6.22000 0.30060
Cl        16.07000        4.74000        4.22000 0.30060
C          7.02000        9.16000        5.64000 -0.302700
H          8.07000        9.00000        5.89000 0.00070
Cl         5.98000        8.32000        6.88000 0.30060
Cl         6.90000       10.90000        5.59000 0.30060
Cl         6.59000        8.32000        4.09000 0.30060
C          7.11000       12.76000        8.53000 -0.302700
H          6.85000       12.30000        7.57000 0.00070
Cl         8.85000       13.12000        8.39000 0.30060
Cl         6.17000       14.18000        8.96000 0.30060
Cl         6.87000       11.67000        9.93000 0.30060
C          6.33000        3.88000        9.59000 -0.302700
H          6.49000        3.16000       10.40000 0.00070
Cl         6.57000        2.84000        8.13000 0.30060
Cl         4.70000        4.74000        9.69000 0.30060
Cl         7.64000        5.09000        9.59000 0.30060
C          2.50000        8.14000       10.69000 -0.302700
H          1.87000        8.90000       11.15000 0.00070
Cl         1.64000        6.63000       10.99000 0.30060
Cl         2.75000        8.43000        8.99000 0.30060
Cl         4.04000        8.17000       11.65000 0.30060
C          3.78000       17.58000        9.77000 -0.302700
H          4.33000       16.68000        9.48000 0.00070
Cl         4.20000       18.66000        8.39000 0.30060
Cl         2.08000       17.45000       10.27000 0.30060
Cl         4.61000       18.19000       11.25000 0.30060
C         13.92000        9.08000       14.78000 -0.302700
H         13.57000        9.13000       15.82000 0.00070
Cl        12.69000        7.93000       14.05000 0.30060
Cl        13.96000       10.73000       14.03000 0.30060
Cl        15.59000        8.50000       14.72000 0.30060
C         14.45000       15.67000       13.67000 -0.302700
H         13.42000       15.54000       13.34000 0.00070
Cl        14.32000       15.87000       15.47000 0.30060
Cl        15.36000       14.27000       13.16000 0.30060
Cl        15.02000       17.18000       12.90000 0.30060
C         17.80000       19.88000       12.47000 -0.302700
H         16.90000       19.37000       12.81000 0.00070
Cl        17.45000       20.44000       10.77000 0.30060
Cl        18.27000       21.11000       13.62000 0.30060
Cl        19.02000       18.65000       12.43000 0.30060
C         10.55000        9.60000        8.79000 -0.302700
H         10.87000       10.46000        9.37000 0.00070
Cl         8.93000        8.95000        9.30000 0.30060
Cl        10.59000       10.10000        7.06000 0.30060
Cl        11.67000        8.33000        9.07000 0.30060
C          3.09000        8.80000       16.80000 -0.302700
H          3.09000        7.78000       16.41000 0.00070
Cl         1.46000        9.20000       17.39000 0.30060
Cl         4.46000        8.74000       18.00000 0.30060
Cl         3.69000        9.88000       15.54000 0.30060

