%Mem = 2GB
%nproc=16
# b3lyp/6-31g* td 

Butadiene tddft 

0 1
C         12.11000       12.35000       12.35000 
H         11.69000       12.58000       13.33000 
C         11.12000       11.90000       11.41000 
H         11.59000       11.60000       10.47000 
C          9.80000       11.89000       11.65000 
H          9.45000       12.31000       12.60000 
H          9.01000       11.66000       10.94000 
C         13.43000       12.42000       12.14000 
H         13.82000       12.23000       11.15000 
H         14.13000       12.63000       12.94000 
  
C         16.95000       20.03000        7.98000 -0.302700
H         17.29000       19.07000        7.59000 0.00070
Cl        18.17000       21.14000        7.50000 0.30060
Cl        15.44000       20.39000        7.21000 0.30060
Cl        16.93000       19.74000        9.71000 0.30060
C          7.88000       10.73000       21.20000 -0.302700
H          8.33000       11.23000       20.34000 0.00070
Cl         6.64000       11.88000       21.74000 0.30060
Cl         7.28000        9.05000       20.74000 0.30060
Cl         9.18000       10.69000       22.42000 0.30060
C         10.70000       12.47000        6.88000 -0.302700
H         11.02000       11.43000        7.01000 0.00070
Cl         8.87000       12.50000        7.08000 0.30060
Cl        11.33000       13.52000        8.26000 0.30060
Cl        11.29000       13.08000        5.39000 0.30060
C         14.86000       17.47000       18.63000 -0.302700
H         15.74000       16.82000       18.57000 0.00070
Cl        13.52000       16.55000       19.30000 0.30060
Cl        15.28000       18.87000       19.60000 0.30060
Cl        14.49000       17.85000       16.97000 0.30060
C          4.39000       14.23000        9.24000 -0.302700
H          4.20000       13.69000       10.17000 0.00070
Cl         3.23000       13.66000        7.99000 0.30060
Cl         4.14000       16.01000        9.39000 0.30060
Cl         6.00000       13.83000        8.57000 0.30060
C          7.09000        4.18000       14.66000 -0.302700
H          6.73000        4.32000       15.68000 0.00070
Cl         8.84000        3.80000       14.93000 0.30060
Cl         6.19000        2.70000       14.19000 0.30060
Cl         6.86000        5.55000       13.59000 0.30060
C          7.66000       18.74000        7.42000 -0.302700
H          7.07000       18.40000        6.57000 0.00070
Cl         8.67000       20.05000        7.06000 0.30060
Cl         6.42000       19.07000        8.64000 0.30060
Cl         8.61000       17.26000        8.00000 0.30060
C          4.67000       15.66000        5.56000 -0.302700
H          4.18000       15.35000        6.49000 0.00070
Cl         4.07000       14.47000        4.39000 0.30060
Cl         4.10000       17.29000        5.23000 0.30060
Cl         6.39000       15.59000        5.67000 0.30060
C         19.30000        9.92000        7.79000 -0.302700
H         18.46000        9.77000        8.47000 0.00070
Cl        18.47000       10.22000        6.27000 0.30060
Cl        20.31000       11.34000        8.24000 0.30060
Cl        20.08000        8.34000        7.72000 0.30060
C          6.37000       14.92000       15.42000 -0.302700
H          5.51000       15.51000       15.09000 0.00070
Cl         7.42000       16.01000       16.39000 0.30060
Cl         5.81000       13.68000       16.56000 0.30060
Cl         7.22000       14.23000       14.04000 0.30060
C         11.69000        7.69000       14.19000 -0.302700
H         12.40000        8.23000       14.83000 0.00070
Cl        10.68000        6.65000       15.26000 0.30060
Cl        10.81000        9.06000       13.53000 0.30060
Cl        12.63000        6.74000       13.00000 0.30060
C         15.80000       16.76000       12.08000 -0.302700
H         16.62000       16.77000       11.36000 0.00070
Cl        16.29000       15.27000       12.97000 0.30060
Cl        16.06000       18.17000       13.18000 0.30060
Cl        14.26000       16.63000       11.20000 0.30060
C          8.42000        4.25000       10.87000 -0.302700
H          7.58000        4.42000       11.55000 0.00070
Cl         9.40000        5.63000       10.43000 0.30060
Cl         9.47000        2.98000       11.48000 0.30060
Cl         7.76000        3.55000        9.40000 0.30060
C         18.80000       12.19000       12.55000 -0.302700
H         18.27000       12.74000       11.76000 0.00070
Cl        19.62000       13.51000       13.54000 0.30060
Cl        17.51000       11.41000       13.43000 0.30060
Cl        20.07000       11.15000       11.84000 0.30060
C         11.16000       20.68000       10.01000 -0.302700
H         10.37000       21.34000        9.66000 0.00070
Cl        12.12000       20.28000        8.57000 0.30060
Cl        12.23000       21.53000       11.14000 0.30060
Cl        10.45000       19.23000       10.81000 0.30060
C         20.45000       12.65000       17.71000 -0.302700
H         20.03000       11.68000       17.42000 0.00070
Cl        20.51000       12.65000       19.51000 0.30060
Cl        22.13000       12.51000       17.06000 0.30060
Cl        19.54000       14.07000       17.12000 0.30060
C         11.14000        3.35000        8.01000 -0.302700
H         10.32000        3.16000        8.71000 0.00070
Cl        11.02000        2.03000        6.87000 0.30060
Cl        10.82000        4.91000        7.26000 0.30060
Cl        12.58000        3.22000        8.92000 0.30060
C          3.78000        5.42000       10.67000 -0.302700
H          3.06000        5.31000        9.85000 0.00070
Cl         2.89000        5.87000       12.16000 0.30060
Cl         4.71000        3.91000       10.92000 0.30060
Cl         4.77000        6.80000       10.06000 0.30060
C         10.76000       15.16000       15.64000 -0.302700
H         10.13000       15.73000       14.94000 0.00070
Cl        10.98000       16.15000       17.15000 0.30060
Cl        10.12000       13.54000       16.03000 0.30060
Cl        12.45000       14.99000       15.06000 0.30060
C         14.96000       11.20000       18.20000 -0.302700
H         14.49000       11.57000       19.11000 0.00070
Cl        14.15000        9.67000       17.81000 0.30060
Cl        14.54000       12.38000       16.97000 0.30060
Cl        16.68000       10.97000       18.30000 0.30060
C         11.47000       18.76000       15.14000 -0.302700
H         11.89000       17.90000       15.68000 0.00070
Cl         9.81000       18.27000       14.78000 0.30060
Cl        11.67000       20.15000       16.27000 0.30060
Cl        12.56000       18.82000       13.69000 0.30060
C         18.43000        5.31000       14.66000 -0.302700
H         17.62000        5.40000       15.39000 0.00070
Cl        18.95000        3.60000       14.61000 0.30060
Cl        18.02000        5.84000       13.00000 0.30060
Cl        19.85000        6.14000       15.24000 0.30060
C         15.84000        5.97000       17.77000 -0.302700
H         14.87000        5.84000       18.26000 0.00070
Cl        16.83000        6.96000       18.91000 0.30060
Cl        16.46000        4.32000       17.50000 0.30060
Cl        15.53000        6.69000       16.22000 0.30060
C         11.79000       17.39000        4.87000 -0.302700
H         11.45000       18.31000        5.34000 0.00070
Cl        12.53000       17.76000        3.28000 0.30060
Cl        12.90000       16.55000        6.00000 0.30060
Cl        10.38000       16.37000        4.69000 0.30060
C         10.51000       10.28000        2.15000 -0.302700
H         10.92000       10.31000        1.14000 0.00070
Cl         9.41000        8.88000        2.09000 0.30060
Cl        11.75000       10.04000        3.42000 0.30060
Cl         9.62000       11.77000        2.31000 0.30060
C         11.88000        4.60000       18.97000 -0.302700
H         10.87000        4.39000       19.33000 0.00070
Cl        13.14000        4.01000       20.03000 0.30060
Cl        12.07000        3.80000       17.32000 0.30060
Cl        12.14000        6.36000       18.74000 0.30060
C          3.05000        9.44000        7.16000 -0.302700
H          3.41000       10.03000        6.32000 0.00070
Cl         3.02000        7.69000        6.83000 0.30060
Cl         4.24000        9.84000        8.43000 0.30060
Cl         1.43000        9.89000        7.59000 0.30060
C          5.93000       10.80000        2.95000 -0.302700
H          6.96000       10.78000        3.34000 0.00070
Cl         5.89000       12.41000        2.33000 0.30060
Cl         5.67000        9.67000        1.51000 0.30060
Cl         4.63000       10.57000        4.10000 0.30060
C          8.93000        8.06000        7.45000 -0.302700
H          9.53000        7.30000        7.96000 0.00070
Cl         9.92000        8.88000        6.16000 0.30060
Cl         7.35000        7.60000        6.76000 0.30060
Cl         8.50000        9.24000        8.74000 0.30060
C          8.63000        9.41000       16.76000 -0.302700
H          9.25000        9.42000       15.87000 0.00070
Cl         7.25000        8.37000       16.44000 0.30060
Cl         9.50000        8.90000       18.21000 0.30060
Cl         8.07000       11.12000       16.93000 0.30060
C          5.74000       18.63000       13.16000 -0.302700
H          5.41000       19.54000       12.66000 0.00070
Cl         6.43000       19.16000       14.71000 0.30060
Cl         4.43000       17.46000       13.46000 0.30060
Cl         6.93000       17.97000       11.90000 0.30060
C         14.19000        7.48000        9.63000 -0.302700
H         13.38000        6.75000        9.66000 0.00070
Cl        14.45000        7.88000        7.90000 0.30060
Cl        13.82000        8.92000       10.57000 0.30060
Cl        15.60000        6.58000       10.30000 0.30060
C         18.32000       14.34000        8.86000 -0.302700
H         19.19000       13.76000        8.53000 0.00070
Cl        19.05000       15.42000       10.12000 0.30060
Cl        17.58000       15.21000        7.47000 0.30060
Cl        17.07000       13.31000        9.62000 0.30060
C         15.32000       11.92000        4.67000 -0.302700
H         14.61000       12.42000        4.00000 0.00070
Cl        15.22000       10.21000        4.17000 0.30060
Cl        16.91000       12.82000        4.38000 0.30060
Cl        14.67000       12.09000        6.37000 0.30060
C          6.33000       10.02000       12.68000 -0.302700
H          6.56000       10.39000       13.68000 0.00070
Cl         6.26000       11.59000       11.73000 0.30060
Cl         7.58000        8.89000       12.15000 0.30060
Cl         4.76000        9.18000       12.72000 0.30060

%Mem = 2GB
%nproc=16
# b3lyp/6-31g* td 

Butadiene tddft 

0 1
C         12.11000       12.35000       12.35000 
H         11.69000       12.58000       13.33000 
C         11.12000       11.90000       11.41000 
H         11.59000       11.60000       10.47000 
C          9.80000       11.89000       11.65000 
H          9.45000       12.31000       12.60000 
H          9.01000       11.66000       10.94000 
C         13.43000       12.42000       12.14000 
H         13.82000       12.23000       11.15000 
H         14.13000       12.63000       12.94000 
  
C         16.95000       20.03000        7.98000 -0.302700
H         17.29000       19.07000        7.59000 0.00070
Cl        18.17000       21.14000        7.50000 0.30060
Cl        15.44000       20.39000        7.21000 0.30060
Cl        16.93000       19.74000        9.71000 0.30060
C          7.88000       10.73000       21.20000 -0.302700
H          8.33000       11.23000       20.34000 0.00070
Cl         6.64000       11.88000       21.74000 0.30060
Cl         7.28000        9.05000       20.74000 0.30060
Cl         9.18000       10.69000       22.42000 0.30060
C         10.70000       12.47000        6.88000 -0.302700
H         11.02000       11.43000        7.01000 0.00070
Cl         8.87000       12.50000        7.08000 0.30060
Cl        11.33000       13.52000        8.26000 0.30060
Cl        11.29000       13.08000        5.39000 0.30060
C         14.86000       17.47000       18.63000 -0.302700
H         15.74000       16.82000       18.57000 0.00070
Cl        13.52000       16.55000       19.30000 0.30060
Cl        15.28000       18.87000       19.60000 0.30060
Cl        14.49000       17.85000       16.97000 0.30060
C          4.39000       14.23000        9.24000 -0.302700
H          4.20000       13.69000       10.17000 0.00070
Cl         3.23000       13.66000        7.99000 0.30060
Cl         4.14000       16.01000        9.39000 0.30060
Cl         6.00000       13.83000        8.57000 0.30060
C          7.09000        4.18000       14.66000 -0.302700
H          6.73000        4.32000       15.68000 0.00070
Cl         8.84000        3.80000       14.93000 0.30060
Cl         6.19000        2.70000       14.19000 0.30060
Cl         6.86000        5.55000       13.59000 0.30060
C          7.66000       18.74000        7.42000 -0.302700
H          7.07000       18.40000        6.57000 0.00070
Cl         8.67000       20.05000        7.06000 0.30060
Cl         6.42000       19.07000        8.64000 0.30060
Cl         8.61000       17.26000        8.00000 0.30060
C          4.67000       15.66000        5.56000 -0.302700
H          4.18000       15.35000        6.49000 0.00070
Cl         4.07000       14.47000        4.39000 0.30060
Cl         4.10000       17.29000        5.23000 0.30060
Cl         6.39000       15.59000        5.67000 0.30060
C         19.30000        9.92000        7.79000 -0.302700
H         18.46000        9.77000        8.47000 0.00070
Cl        18.47000       10.22000        6.27000 0.30060
Cl        20.31000       11.34000        8.24000 0.30060
Cl        20.08000        8.34000        7.72000 0.30060
C          6.37000       14.92000       15.42000 -0.302700
H          5.51000       15.51000       15.09000 0.00070
Cl         7.42000       16.01000       16.39000 0.30060
Cl         5.81000       13.68000       16.56000 0.30060
Cl         7.22000       14.23000       14.04000 0.30060
C         11.69000        7.69000       14.19000 -0.302700
H         12.40000        8.23000       14.83000 0.00070
Cl        10.68000        6.65000       15.26000 0.30060
Cl        10.81000        9.06000       13.53000 0.30060
Cl        12.63000        6.74000       13.00000 0.30060
C         15.80000       16.76000       12.08000 -0.302700
H         16.62000       16.77000       11.36000 0.00070
Cl        16.29000       15.27000       12.97000 0.30060
Cl        16.06000       18.17000       13.18000 0.30060
Cl        14.26000       16.63000       11.20000 0.30060
C          8.42000        4.25000       10.87000 -0.302700
H          7.58000        4.42000       11.55000 0.00070
Cl         9.40000        5.63000       10.43000 0.30060
Cl         9.47000        2.98000       11.48000 0.30060
Cl         7.76000        3.55000        9.40000 0.30060
C         18.80000       12.19000       12.55000 -0.302700
H         18.27000       12.74000       11.76000 0.00070
Cl        19.62000       13.51000       13.54000 0.30060
Cl        17.51000       11.41000       13.43000 0.30060
Cl        20.07000       11.15000       11.84000 0.30060
C         11.16000       20.68000       10.01000 -0.302700
H         10.37000       21.34000        9.66000 0.00070
Cl        12.12000       20.28000        8.57000 0.30060
Cl        12.23000       21.53000       11.14000 0.30060
Cl        10.45000       19.23000       10.81000 0.30060
C         20.45000       12.65000       17.71000 -0.302700
H         20.03000       11.68000       17.42000 0.00070
Cl        20.51000       12.65000       19.51000 0.30060
Cl        22.13000       12.51000       17.06000 0.30060
Cl        19.54000       14.07000       17.12000 0.30060
C         11.14000        3.35000        8.01000 -0.302700
H         10.32000        3.16000        8.71000 0.00070
Cl        11.02000        2.03000        6.87000 0.30060
Cl        10.82000        4.91000        7.26000 0.30060
Cl        12.58000        3.22000        8.92000 0.30060
C          3.78000        5.42000       10.67000 -0.302700
H          3.06000        5.31000        9.85000 0.00070
Cl         2.89000        5.87000       12.16000 0.30060
Cl         4.71000        3.91000       10.92000 0.30060
Cl         4.77000        6.80000       10.06000 0.30060
C         10.76000       15.16000       15.64000 -0.302700
H         10.13000       15.73000       14.94000 0.00070
Cl        10.98000       16.15000       17.15000 0.30060
Cl        10.12000       13.54000       16.03000 0.30060
Cl        12.45000       14.99000       15.06000 0.30060
C         14.96000       11.20000       18.20000 -0.302700
H         14.49000       11.57000       19.11000 0.00070
Cl        14.15000        9.67000       17.81000 0.30060
Cl        14.54000       12.38000       16.97000 0.30060
Cl        16.68000       10.97000       18.30000 0.30060
C         11.47000       18.76000       15.14000 -0.302700
H         11.89000       17.90000       15.68000 0.00070
Cl         9.81000       18.27000       14.78000 0.30060
Cl        11.67000       20.15000       16.27000 0.30060
Cl        12.56000       18.82000       13.69000 0.30060
C         18.43000        5.31000       14.66000 -0.302700
H         17.62000        5.40000       15.39000 0.00070
Cl        18.95000        3.60000       14.61000 0.30060
Cl        18.02000        5.84000       13.00000 0.30060
Cl        19.85000        6.14000       15.24000 0.30060
C         15.84000        5.97000       17.77000 -0.302700
H         14.87000        5.84000       18.26000 0.00070
Cl        16.83000        6.96000       18.91000 0.30060
Cl        16.46000        4.32000       17.50000 0.30060
Cl        15.53000        6.69000       16.22000 0.30060
C         11.79000       17.39000        4.87000 -0.302700
H         11.45000       18.31000        5.34000 0.00070
Cl        12.53000       17.76000        3.28000 0.30060
Cl        12.90000       16.55000        6.00000 0.30060
Cl        10.38000       16.37000        4.69000 0.30060
C         10.51000       10.28000        2.15000 -0.302700
H         10.92000       10.31000        1.14000 0.00070
Cl         9.41000        8.88000        2.09000 0.30060
Cl        11.75000       10.04000        3.42000 0.30060
Cl         9.62000       11.77000        2.31000 0.30060
C         11.88000        4.60000       18.97000 -0.302700
H         10.87000        4.39000       19.33000 0.00070
Cl        13.14000        4.01000       20.03000 0.30060
Cl        12.07000        3.80000       17.32000 0.30060
Cl        12.14000        6.36000       18.74000 0.30060
C          3.05000        9.44000        7.16000 -0.302700
H          3.41000       10.03000        6.32000 0.00070
Cl         3.02000        7.69000        6.83000 0.30060
Cl         4.24000        9.84000        8.43000 0.30060
Cl         1.43000        9.89000        7.59000 0.30060
C          5.93000       10.80000        2.95000 -0.302700
H          6.96000       10.78000        3.34000 0.00070
Cl         5.89000       12.41000        2.33000 0.30060
Cl         5.67000        9.67000        1.51000 0.30060
Cl         4.63000       10.57000        4.10000 0.30060
C          8.93000        8.06000        7.45000 -0.302700
H          9.53000        7.30000        7.96000 0.00070
Cl         9.92000        8.88000        6.16000 0.30060
Cl         7.35000        7.60000        6.76000 0.30060
Cl         8.50000        9.24000        8.74000 0.30060
C          8.63000        9.41000       16.76000 -0.302700
H          9.25000        9.42000       15.87000 0.00070
Cl         7.25000        8.37000       16.44000 0.30060
Cl         9.50000        8.90000       18.21000 0.30060
Cl         8.07000       11.12000       16.93000 0.30060
C          5.74000       18.63000       13.16000 -0.302700
H          5.41000       19.54000       12.66000 0.00070
Cl         6.43000       19.16000       14.71000 0.30060
Cl         4.43000       17.46000       13.46000 0.30060
Cl         6.93000       17.97000       11.90000 0.30060
C         14.19000        7.48000        9.63000 -0.302700
H         13.38000        6.75000        9.66000 0.00070
Cl        14.45000        7.88000        7.90000 0.30060
Cl        13.82000        8.92000       10.57000 0.30060
Cl        15.60000        6.58000       10.30000 0.30060
C         18.32000       14.34000        8.86000 -0.302700
H         19.19000       13.76000        8.53000 0.00070
Cl        19.05000       15.42000       10.12000 0.30060
Cl        17.58000       15.21000        7.47000 0.30060
Cl        17.07000       13.31000        9.62000 0.30060
C         15.32000       11.92000        4.67000 -0.302700
H         14.61000       12.42000        4.00000 0.00070
Cl        15.22000       10.21000        4.17000 0.30060
Cl        16.91000       12.82000        4.38000 0.30060
Cl        14.67000       12.09000        6.37000 0.30060
C          6.33000       10.02000       12.68000 -0.302700
H          6.56000       10.39000       13.68000 0.00070
Cl         6.26000       11.59000       11.73000 0.30060
Cl         7.58000        8.89000       12.15000 0.30060
Cl         4.76000        9.18000       12.72000 0.30060

