%Mem = 2GB
%nproc=16
# b3lyp/6-31g* td 

Butadiene tddft 

0 1
C         11.26000       10.91000       11.79000 
H         11.22000       11.82000       12.38000 
C         12.46000       10.82000       10.91000 
H         12.75000        9.89000       10.43000 
C         13.30000       11.82000       10.65000 
H         13.10000       12.76000       11.15000 
H         14.11000       11.84000        9.92000 
C         10.23000       10.01000       11.85000 
H         10.29000        9.15000       11.19000 
H          9.35000       10.22000       12.45000 
  
C          2.47000       14.01000        7.20000 -0.302700
H          2.45000       13.91000        8.29000 0.00070
Cl         3.87000       12.97000        6.65000 0.30060
Cl         0.90000       13.35000        6.72000 0.30060
Cl         2.49000       15.74000        6.85000 0.30060
C         22.44000       12.32000        9.50000 -0.302700
H         23.45000       11.90000        9.62000 0.00070
Cl        21.42000       11.84000       10.90000 0.30060
Cl        22.59000       14.15000        9.48000 0.30060
Cl        21.63000       11.60000        8.05000 0.30060
C         20.86000        8.58000       16.50000 -0.302700
H         21.35000        8.72000       17.47000 0.00070
Cl        21.71000        9.45000       15.17000 0.30060
Cl        20.61000        6.90000       16.06000 0.30060
Cl        19.22000        9.34000       16.72000 0.30060
C          8.68000        2.58000        8.92000 -0.302700
H          8.46000        3.27000        9.75000 0.00070
Cl         7.39000        2.84000        7.74000 0.30060
Cl        10.22000        3.29000        8.25000 0.30060
Cl         9.07000        0.95000        9.47000 0.30060
C         16.97000        5.97000       14.09000 -0.302700
H         17.26000        6.65000       14.89000 0.00070
Cl        16.11000        4.72000       14.96000 0.30060
Cl        15.81000        6.76000       12.97000 0.30060
Cl        18.45000        5.39000       13.29000 0.30060
C         11.06000        5.62000       19.27000 -0.302700
H         11.74000        6.32000       19.77000 0.00070
Cl         9.42000        5.57000       20.02000 0.30060
Cl        10.59000        6.39000       17.69000 0.30060
Cl        11.72000        4.01000       19.19000 0.30060
C         13.50000        6.11000        5.34000 -0.302700
H         14.00000        6.16000        6.31000 0.00070
Cl        11.71000        5.87000        5.38000 0.30060
Cl        13.81000        7.72000        4.62000 0.30060
Cl        14.24000        4.79000        4.39000 0.30060
C         18.17000       17.31000       12.96000 -0.302700
H         17.86000       17.49000       11.92000 0.00070
Cl        19.57000       16.25000       12.82000 0.30060
Cl        18.48000       18.97000       13.53000 0.30060
Cl        16.78000       16.70000       13.82000 0.30060
C         10.64000        4.35000       14.44000 -0.302700
H         10.75000        3.36000       14.89000 0.00070
Cl        10.65000        4.15000       12.62000 0.30060
Cl         9.20000        5.27000       14.81000 0.30060
Cl        12.08000        5.28000       15.00000 0.30060
C         10.00000       10.96000       21.40000 -0.302700
H         10.48000       11.10000       22.37000 0.00070
Cl        10.52000       12.22000       20.27000 0.30060
Cl        10.62000        9.42000       20.78000 0.30060
Cl         8.24000       10.87000       21.61000 0.30060
C         16.66000       14.66000       18.49000 -0.302700
H         16.34000       15.64000       18.15000 0.00070
Cl        17.11000       13.64000       17.06000 0.30060
Cl        18.14000       15.07000       19.38000 0.30060
Cl        15.26000       13.92000       19.38000 0.30060
C         10.84000        9.31000        7.33000 -0.302700
H         10.77000        8.81000        6.36000 0.00070
Cl        12.59000        9.86000        7.44000 0.30060
Cl         9.77000       10.72000        7.27000 0.30060
Cl        10.56000        8.08000        8.64000 0.30060
C         15.28000       16.82000        3.86000 -0.302700
H         15.77000       16.77000        4.83000 0.00070
Cl        14.45000       15.18000        3.67000 0.30060
Cl        14.03000       18.12000        4.10000 0.30060
Cl        16.57000       17.10000        2.59000 0.30060
C          9.95000       19.35000        7.17000 -0.302700
H          9.16000       19.31000        6.41000 0.00070
Cl         9.82000       20.98000        7.87000 0.30060
Cl         9.35000       18.11000        8.30000 0.30060
Cl        11.59000       18.98000        6.60000 0.30060
C         22.21000        6.99000       11.37000 -0.302700
H         21.89000        6.06000       10.90000 0.00070
Cl        22.85000        6.60000       12.94000 0.30060
Cl        23.35000        7.84000       10.28000 0.30060
Cl        20.64000        7.93000       11.49000 0.30060
C          4.62000       10.20000       18.67000 -0.302700
H          4.49000       10.01000       17.60000 0.00070
Cl         3.91000        8.80000       19.59000 0.30060
Cl         6.37000       10.16000       18.81000 0.30060
Cl         3.99000       11.77000       19.15000 0.30060
C         17.04000       13.33000        8.61000 -0.302700
H         16.16000       13.50000        9.24000 0.00070
Cl        16.82000       14.34000        7.16000 0.30060
Cl        18.47000       13.73000        9.58000 0.30060
Cl        17.04000       11.54000        8.19000 0.30060
C         17.54000        6.09000        3.86000 -0.302700
H         16.72000        5.63000        4.42000 0.00070
Cl        17.04000        7.74000        3.44000 0.30060
Cl        19.05000        5.88000        4.86000 0.30060
Cl        17.54000        5.05000        2.44000 0.30060
C          3.34000        9.67000       11.82000 -0.302700
H          3.64000        9.18000       10.89000 0.00070
Cl         2.76000       11.32000       11.49000 0.30060
Cl         2.16000        8.57000       12.62000 0.30060
Cl         4.72000        9.81000       12.90000 0.30060
C         10.74000       19.19000       13.44000 -0.302700
H         11.39000       18.63000       14.12000 0.00070
Cl         9.62000       17.91000       12.69000 0.30060
Cl         9.82000       20.39000       14.31000 0.30060
Cl        11.87000       19.96000       12.33000 0.30060
C         16.99000       20.94000       11.21000 -0.302700
H         17.37000       20.72000       12.21000 0.00070
Cl        15.62000       19.85000       10.81000 0.30060
Cl        16.43000       22.61000       11.08000 0.30060
Cl        18.16000       20.70000        9.87000 0.30060
C         15.14000        4.99000        8.99000 -0.302700
H         15.65000        4.57000        9.86000 0.00070
Cl        14.97000        3.92000        7.58000 0.30060
Cl        13.50000        5.40000        9.51000 0.30060
Cl        16.13000        6.43000        8.66000 0.30060
C          6.89000       14.45000        9.43000 -0.302700
H          7.32000       13.49000        9.15000 0.00070
Cl         7.07000       15.63000        8.11000 0.30060
Cl         5.27000       14.36000       10.00000 0.30060
Cl         8.02000       15.08000       10.70000 0.30060
C          9.96000       15.01000       16.45000 -0.302700
H         10.46000       14.34000       17.15000 0.00070
Cl         8.61000       15.65000       17.41000 0.30060
Cl        11.00000       16.26000       15.82000 0.30060
Cl         9.61000       13.88000       15.12000 0.30060
C         13.56000        2.45000       12.12000 -0.302700
H         13.53000        3.52000       12.34000 0.00070
Cl        12.37000        2.11000       10.90000 0.30060
Cl        15.20000        2.27000       11.48000 0.30060
Cl        13.29000        1.49000       13.63000 0.30060
C          5.95000       14.21000       15.11000 -0.302700
H          6.87000       14.07000       15.69000 0.00070
Cl         6.11000       15.69000       14.10000 0.30060
Cl         5.82000       12.68000       14.18000 0.30060
Cl         4.80000       14.52000       16.40000 0.30060
C          9.69000       10.18000        2.86000 -0.302700
H          9.47000        9.12000        2.68000 0.00070
Cl         8.19000       10.73000        3.66000 0.30060
Cl        11.18000       10.51000        3.71000 0.30060
Cl         9.64000       10.77000        1.18000 0.30060
C         16.19000        8.20000       20.43000 -0.302700
H         15.56000        8.21000       21.32000 0.00070
Cl        17.83000        8.19000       21.11000 0.30060
Cl        15.80000        6.76000       19.46000 0.30060
Cl        15.88000        9.68000       19.43000 0.30060
C          1.66000       11.97000       14.62000 -0.302700
H          2.46000       12.39000       14.00000 0.00070
Cl         0.11000       11.63000       13.74000 0.30060
Cl         2.36000       10.61000       15.45000 0.30060
Cl         1.45000       13.28000       15.82000 0.30060
C         13.71000        8.81000       16.07000 -0.302700
H         13.56000        7.75000       16.27000 0.00070
Cl        12.79000        9.28000       14.64000 0.30060
Cl        13.08000        9.63000       17.54000 0.30060
Cl        15.42000        9.30000       15.84000 0.30060
C          5.14000        6.47000        7.90000 -0.302700
H          4.66000        5.49000        7.95000 0.00070
Cl         6.75000        6.29000        8.65000 0.30060
Cl         5.40000        6.84000        6.24000 0.30060
Cl         4.23000        7.74000        8.81000 0.30060
C         17.30000       11.69000       13.10000 -0.302700
H         17.28000       10.98000       13.93000 0.00070
Cl        15.92000       12.82000       13.21000 0.30060
Cl        18.75000       12.68000       12.95000 0.30060
Cl        16.94000       10.49000       11.80000 0.30060
C         12.57000       16.34000        8.82000 -0.302700
H         12.03000       17.29000        8.75000 0.00070
Cl        12.05000       15.32000       10.19000 0.30060
Cl        12.29000       15.45000        7.38000 0.30060
Cl        14.30000       16.72000        8.92000 0.30060

%Mem = 2GB
%nproc=16
# b3lyp/6-31g* td 

Butadiene tddft 

0 1
C         11.26000       10.91000       11.79000 
H         11.22000       11.82000       12.38000 
C         12.46000       10.82000       10.91000 
H         12.75000        9.89000       10.43000 
C         13.30000       11.82000       10.65000 
H         13.10000       12.76000       11.15000 
H         14.11000       11.84000        9.92000 
C         10.23000       10.01000       11.85000 
H         10.29000        9.15000       11.19000 
H          9.35000       10.22000       12.45000 
  
C          2.47000       14.01000        7.20000 -0.302700
H          2.45000       13.91000        8.29000 0.00070
Cl         3.87000       12.97000        6.65000 0.30060
Cl         0.90000       13.35000        6.72000 0.30060
Cl         2.49000       15.74000        6.85000 0.30060
C         22.44000       12.32000        9.50000 -0.302700
H         23.45000       11.90000        9.62000 0.00070
Cl        21.42000       11.84000       10.90000 0.30060
Cl        22.59000       14.15000        9.48000 0.30060
Cl        21.63000       11.60000        8.05000 0.30060
C         20.86000        8.58000       16.50000 -0.302700
H         21.35000        8.72000       17.47000 0.00070
Cl        21.71000        9.45000       15.17000 0.30060
Cl        20.61000        6.90000       16.06000 0.30060
Cl        19.22000        9.34000       16.72000 0.30060
C          8.68000        2.58000        8.92000 -0.302700
H          8.46000        3.27000        9.75000 0.00070
Cl         7.39000        2.84000        7.74000 0.30060
Cl        10.22000        3.29000        8.25000 0.30060
Cl         9.07000        0.95000        9.47000 0.30060
C         16.97000        5.97000       14.09000 -0.302700
H         17.26000        6.65000       14.89000 0.00070
Cl        16.11000        4.72000       14.96000 0.30060
Cl        15.81000        6.76000       12.97000 0.30060
Cl        18.45000        5.39000       13.29000 0.30060
C         11.06000        5.62000       19.27000 -0.302700
H         11.74000        6.32000       19.77000 0.00070
Cl         9.42000        5.57000       20.02000 0.30060
Cl        10.59000        6.39000       17.69000 0.30060
Cl        11.72000        4.01000       19.19000 0.30060
C         13.50000        6.11000        5.34000 -0.302700
H         14.00000        6.16000        6.31000 0.00070
Cl        11.71000        5.87000        5.38000 0.30060
Cl        13.81000        7.72000        4.62000 0.30060
Cl        14.24000        4.79000        4.39000 0.30060
C         18.17000       17.31000       12.96000 -0.302700
H         17.86000       17.49000       11.92000 0.00070
Cl        19.57000       16.25000       12.82000 0.30060
Cl        18.48000       18.97000       13.53000 0.30060
Cl        16.78000       16.70000       13.82000 0.30060
C         10.64000        4.35000       14.44000 -0.302700
H         10.75000        3.36000       14.89000 0.00070
Cl        10.65000        4.15000       12.62000 0.30060
Cl         9.20000        5.27000       14.81000 0.30060
Cl        12.08000        5.28000       15.00000 0.30060
C         10.00000       10.96000       21.40000 -0.302700
H         10.48000       11.10000       22.37000 0.00070
Cl        10.52000       12.22000       20.27000 0.30060
Cl        10.62000        9.42000       20.78000 0.30060
Cl         8.24000       10.87000       21.61000 0.30060
C         16.66000       14.66000       18.49000 -0.302700
H         16.34000       15.64000       18.15000 0.00070
Cl        17.11000       13.64000       17.06000 0.30060
Cl        18.14000       15.07000       19.38000 0.30060
Cl        15.26000       13.92000       19.38000 0.30060
C         10.84000        9.31000        7.33000 -0.302700
H         10.77000        8.81000        6.36000 0.00070
Cl        12.59000        9.86000        7.44000 0.30060
Cl         9.77000       10.72000        7.27000 0.30060
Cl        10.56000        8.08000        8.64000 0.30060
C         15.28000       16.82000        3.86000 -0.302700
H         15.77000       16.77000        4.83000 0.00070
Cl        14.45000       15.18000        3.67000 0.30060
Cl        14.03000       18.12000        4.10000 0.30060
Cl        16.57000       17.10000        2.59000 0.30060
C          9.95000       19.35000        7.17000 -0.302700
H          9.16000       19.31000        6.41000 0.00070
Cl         9.82000       20.98000        7.87000 0.30060
Cl         9.35000       18.11000        8.30000 0.30060
Cl        11.59000       18.98000        6.60000 0.30060
C         22.21000        6.99000       11.37000 -0.302700
H         21.89000        6.06000       10.90000 0.00070
Cl        22.85000        6.60000       12.94000 0.30060
Cl        23.35000        7.84000       10.28000 0.30060
Cl        20.64000        7.93000       11.49000 0.30060
C          4.62000       10.20000       18.67000 -0.302700
H          4.49000       10.01000       17.60000 0.00070
Cl         3.91000        8.80000       19.59000 0.30060
Cl         6.37000       10.16000       18.81000 0.30060
Cl         3.99000       11.77000       19.15000 0.30060
C         17.04000       13.33000        8.61000 -0.302700
H         16.16000       13.50000        9.24000 0.00070
Cl        16.82000       14.34000        7.16000 0.30060
Cl        18.47000       13.73000        9.58000 0.30060
Cl        17.04000       11.54000        8.19000 0.30060
C         17.54000        6.09000        3.86000 -0.302700
H         16.72000        5.63000        4.42000 0.00070
Cl        17.04000        7.74000        3.44000 0.30060
Cl        19.05000        5.88000        4.86000 0.30060
Cl        17.54000        5.05000        2.44000 0.30060
C          3.34000        9.67000       11.82000 -0.302700
H          3.64000        9.18000       10.89000 0.00070
Cl         2.76000       11.32000       11.49000 0.30060
Cl         2.16000        8.57000       12.62000 0.30060
Cl         4.72000        9.81000       12.90000 0.30060
C         10.74000       19.19000       13.44000 -0.302700
H         11.39000       18.63000       14.12000 0.00070
Cl         9.62000       17.91000       12.69000 0.30060
Cl         9.82000       20.39000       14.31000 0.30060
Cl        11.87000       19.96000       12.33000 0.30060
C         16.99000       20.94000       11.21000 -0.302700
H         17.37000       20.72000       12.21000 0.00070
Cl        15.62000       19.85000       10.81000 0.30060
Cl        16.43000       22.61000       11.08000 0.30060
Cl        18.16000       20.70000        9.87000 0.30060
C         15.14000        4.99000        8.99000 -0.302700
H         15.65000        4.57000        9.86000 0.00070
Cl        14.97000        3.92000        7.58000 0.30060
Cl        13.50000        5.40000        9.51000 0.30060
Cl        16.13000        6.43000        8.66000 0.30060
C          6.89000       14.45000        9.43000 -0.302700
H          7.32000       13.49000        9.15000 0.00070
Cl         7.07000       15.63000        8.11000 0.30060
Cl         5.27000       14.36000       10.00000 0.30060
Cl         8.02000       15.08000       10.70000 0.30060
C          9.96000       15.01000       16.45000 -0.302700
H         10.46000       14.34000       17.15000 0.00070
Cl         8.61000       15.65000       17.41000 0.30060
Cl        11.00000       16.26000       15.82000 0.30060
Cl         9.61000       13.88000       15.12000 0.30060
C         13.56000        2.45000       12.12000 -0.302700
H         13.53000        3.52000       12.34000 0.00070
Cl        12.37000        2.11000       10.90000 0.30060
Cl        15.20000        2.27000       11.48000 0.30060
Cl        13.29000        1.49000       13.63000 0.30060
C          5.95000       14.21000       15.11000 -0.302700
H          6.87000       14.07000       15.69000 0.00070
Cl         6.11000       15.69000       14.10000 0.30060
Cl         5.82000       12.68000       14.18000 0.30060
Cl         4.80000       14.52000       16.40000 0.30060
C          9.69000       10.18000        2.86000 -0.302700
H          9.47000        9.12000        2.68000 0.00070
Cl         8.19000       10.73000        3.66000 0.30060
Cl        11.18000       10.51000        3.71000 0.30060
Cl         9.64000       10.77000        1.18000 0.30060
C         16.19000        8.20000       20.43000 -0.302700
H         15.56000        8.21000       21.32000 0.00070
Cl        17.83000        8.19000       21.11000 0.30060
Cl        15.80000        6.76000       19.46000 0.30060
Cl        15.88000        9.68000       19.43000 0.30060
C          1.66000       11.97000       14.62000 -0.302700
H          2.46000       12.39000       14.00000 0.00070
Cl         0.11000       11.63000       13.74000 0.30060
Cl         2.36000       10.61000       15.45000 0.30060
Cl         1.45000       13.28000       15.82000 0.30060
C         13.71000        8.81000       16.07000 -0.302700
H         13.56000        7.75000       16.27000 0.00070
Cl        12.79000        9.28000       14.64000 0.30060
Cl        13.08000        9.63000       17.54000 0.30060
Cl        15.42000        9.30000       15.84000 0.30060
C          5.14000        6.47000        7.90000 -0.302700
H          4.66000        5.49000        7.95000 0.00070
Cl         6.75000        6.29000        8.65000 0.30060
Cl         5.40000        6.84000        6.24000 0.30060
Cl         4.23000        7.74000        8.81000 0.30060
C         17.30000       11.69000       13.10000 -0.302700
H         17.28000       10.98000       13.93000 0.00070
Cl        15.92000       12.82000       13.21000 0.30060
Cl        18.75000       12.68000       12.95000 0.30060
Cl        16.94000       10.49000       11.80000 0.30060
C         12.57000       16.34000        8.82000 -0.302700
H         12.03000       17.29000        8.75000 0.00070
Cl        12.05000       15.32000       10.19000 0.30060
Cl        12.29000       15.45000        7.38000 0.30060
Cl        14.30000       16.72000        8.92000 0.30060

