%Mem = 2GB
%nproc=16
# b3lyp/6-31g* td 

Butadiene tddft 

0 1
C         12.00000       11.85000       11.56000 
H         12.61000       12.73000       11.78000 
C         12.09000       11.62000       10.13000 
H         11.38000       11.00000        9.57000 
C         13.12000       12.05000        9.40000 
H         13.97000       12.57000        9.83000 
H         13.08000       11.83000        8.34000 
C         11.31000       11.06000       12.44000 
H         10.74000       10.19000       12.14000 
H         11.31000       11.16000       13.52000 
  
C          6.70000       11.00000        3.11000 -0.302700
H          7.57000       10.61000        3.65000 0.00070
Cl         7.31000       12.34000        2.11000 0.30060
Cl         5.71000        9.82000        2.21000 0.30060
Cl         5.70000       11.94000        4.23000 0.30060
C          2.35000       11.97000        6.12000 -0.302700
H          3.35000       12.31000        6.43000 0.00070
Cl         1.63000       10.70000        7.21000 0.30060
Cl         1.17000       13.35000        6.10000 0.30060
Cl         2.47000       11.41000        4.40000 0.30060
C          7.26000       17.07000       13.14000 -0.302700
H          7.43000       16.21000       12.49000 0.00070
Cl         7.25000       18.58000       12.23000 0.30060
Cl         5.59000       16.93000       13.85000 0.30060
Cl         8.61000       17.18000       14.32000 0.30060
C          8.34000       17.50000        6.86000 -0.302700
H          7.97000       18.30000        6.22000 0.00070
Cl         7.74000       17.86000        8.46000 0.30060
Cl         7.70000       16.00000        6.27000 0.30060
Cl        10.07000       17.60000        6.63000 0.30060
C         21.58000        7.39000       12.89000 -0.302700
H         21.87000        6.45000       13.37000 0.00070
Cl        22.39000        8.75000       13.74000 0.30060
Cl        22.07000        7.19000       11.14000 0.30060
Cl        19.81000        7.60000       12.90000 0.30060
C          9.36000        6.23000       20.30000 -0.302700
H          8.58000        6.83000       20.78000 0.00070
Cl         9.74000        6.80000       18.60000 0.30060
Cl        10.79000        6.11000       21.45000 0.30060
Cl         8.48000        4.65000       20.24000 0.30060
C         19.71000        5.68000        8.42000 -0.302700
H         20.41000        6.47000        8.71000 0.00070
Cl        19.10000        4.95000        9.89000 0.30060
Cl        18.36000        6.34000        7.43000 0.30060
Cl        20.65000        4.48000        7.48000 0.30060
C         13.33000        4.27000       16.66000 -0.302700
H         13.19000        4.08000       17.73000 0.00070
Cl        11.64000        4.17000       15.87000 0.30060
Cl        14.03000        5.91000       16.39000 0.30060
Cl        14.50000        3.08000       16.14000 0.30060
C         10.65000       12.88000       18.84000 -0.302700
H         11.65000       12.46000       18.72000 0.00070
Cl         9.69000       11.51000       19.48000 0.30060
Cl        10.84000       14.23000       19.97000 0.30060
Cl        10.11000       13.46000       17.19000 0.30060
C         20.48000       15.14000        8.17000 -0.302700
H         20.09000       14.80000        7.20000 0.00070
Cl        22.12000       15.75000        8.15000 0.30060
Cl        19.52000       16.55000        8.71000 0.30060
Cl        20.20000       13.77000        9.21000 0.30060
C         14.08000        3.95000        8.53000 -0.302700
H         14.66000        3.06000        8.78000 0.00070
Cl        12.68000        3.41000        7.56000 0.30060
Cl        13.66000        4.73000       10.05000 0.30060
Cl        15.16000        5.08000        7.62000 0.30060
C         14.29000       10.39000       17.62000 -0.302700
H         14.61000       10.76000       18.60000 0.00070
Cl        13.95000       11.86000       16.65000 0.30060
Cl        15.67000        9.42000       16.90000 0.30060
Cl        12.79000        9.39000       17.75000 0.30060
C         18.44000       12.49000       15.15000 -0.302700
H         17.43000       12.65000       14.77000 0.00070
Cl        19.45000       13.80000       14.49000 0.30060
Cl        18.35000       12.56000       16.91000 0.30060
Cl        19.19000       10.94000       14.55000 0.30060
C         13.77000        8.99000        5.13000 -0.302700
H         14.58000        9.67000        4.88000 0.00070
Cl        14.31000        7.84000        6.40000 0.30060
Cl        12.29000        9.82000        5.63000 0.30060
Cl        13.47000        8.23000        3.53000 0.30060
C         14.01000       17.86000        4.18000 -0.302700
H         13.56000       18.51000        4.93000 0.00070
Cl        15.56000       17.22000        4.68000 0.30060
Cl        13.01000       16.51000        3.89000 0.30060
Cl        14.31000       18.83000        2.64000 0.30060
C          7.72000        9.90000       16.10000 -0.302700
H          7.16000       10.82000       15.90000 0.00070
Cl         7.56000        8.73000       14.76000 0.30060
Cl         9.41000       10.34000       16.37000 0.30060
Cl         6.95000        9.34000       17.61000 0.30060
C         20.34000       11.14000        5.55000 -0.302700
H         20.00000       10.89000        6.56000 0.00070
Cl        20.30000       12.92000        5.35000 0.30060
Cl        21.98000       10.53000        5.29000 0.30060
Cl        19.28000       10.43000        4.27000 0.30060
C          6.15000        8.52000        7.89000 -0.302700
H          6.42000        7.68000        7.25000 0.00070
Cl         5.58000        9.84000        6.86000 0.30060
Cl         4.81000        8.04000        8.94000 0.30060
Cl         7.71000        8.71000        8.82000 0.30060
C         16.53000       19.49000       11.96000 -0.302700
H         17.38000       19.92000       12.50000 0.00070
Cl        16.99000       17.80000       11.44000 0.30060
Cl        15.13000       19.57000       13.02000 0.30060
Cl        16.29000       20.49000       10.49000 0.30060
C         13.56000       17.02000       10.81000 -0.302700
H         14.15000       17.64000       11.49000 0.00070
Cl        14.65000       15.95000        9.93000 0.30060
Cl        12.20000       16.26000       11.63000 0.30060
Cl        13.01000       18.21000        9.63000 0.30060
C         17.81000        5.26000        4.08000 -0.302700
H         17.95000        5.28000        5.16000 0.00070
Cl        17.98000        3.50000        3.58000 0.30060
Cl        16.15000        5.87000        3.80000 0.30060
Cl        18.95000        6.34000        3.32000 0.30060
C         10.71000       13.36000        6.89000 -0.302700
H         11.34000       12.47000        6.78000 0.00070
Cl        10.16000       13.84000        5.29000 0.30060
Cl         9.28000       12.79000        7.85000 0.30060
Cl        11.48000       14.60000        7.88000 0.30060
C         14.29000       15.38000       15.14000 -0.302700
H         14.41000       14.83000       16.07000 0.00070
Cl        12.89000       16.41000       15.40000 0.30060
Cl        15.79000       16.42000       15.02000 0.30060
Cl        13.95000       14.31000       13.81000 0.30060
C          4.33000       14.87000        8.41000 -0.302700
H          3.32000       14.70000        8.78000 0.00070
Cl         4.86000       16.09000        9.62000 0.30060
Cl         5.30000       13.34000        8.51000 0.30060
Cl         4.24000       15.61000        6.80000 0.30060
C          8.87000       13.17000       11.24000 -0.302700
H          9.77000       12.86000       10.69000 0.00070
Cl         7.85000       14.40000       10.36000 0.30060
Cl         7.82000       11.88000       11.75000 0.30060
Cl         9.37000       14.08000       12.65000 0.30060
C         18.99000        5.09000       16.17000 -0.302700
H         19.02000        4.90000       17.24000 0.00070
Cl        20.67000        5.34000       15.77000 0.30060
Cl        18.31000        3.71000       15.29000 0.30060
Cl        18.01000        6.57000       15.80000 0.30060
C          3.94000       12.08000       12.13000 -0.302700
H          4.83000       12.52000       11.68000 0.00070
Cl         2.57000       12.22000       10.93000 0.30060
Cl         4.32000       10.34000       12.31000 0.30060
Cl         3.53000       12.84000       13.62000 0.30060
C         14.53000        8.97000       11.57000 -0.302700
H         13.89000        9.48000       10.84000 0.00070
Cl        15.58000        7.91000       10.56000 0.30060
Cl        15.49000       10.22000       12.32000 0.30060
Cl        13.37000        8.14000       12.67000 0.30060
C          8.75000        6.27000        4.78000 -0.302700
H          9.33000        5.72000        4.04000 0.00070
Cl         9.45000        6.12000        6.41000 0.30060
Cl         8.77000        7.93000        4.22000 0.30060
Cl         7.08000        5.69000        4.79000 0.30060
C         18.24000        9.97000        9.67000 -0.302700
H         17.80000        9.05000       10.06000 0.00070
Cl        18.36000       11.19000       10.94000 0.30060
Cl        19.72000        9.56000        8.73000 0.30060
Cl        16.95000       10.59000        8.64000 0.30060
C         15.87000       13.78000        5.92000 -0.302700
H         16.34000       14.67000        5.50000 0.00070
Cl        14.16000       13.82000        5.49000 0.30060
Cl        16.64000       12.32000        5.21000 0.30060
Cl        16.21000       13.82000        7.64000 0.30060

%Mem = 2GB
%nproc=16
# b3lyp/6-31g* td 

Butadiene tddft 

0 1
C         12.00000       11.85000       11.56000 
H         12.61000       12.73000       11.78000 
C         12.09000       11.62000       10.13000 
H         11.38000       11.00000        9.57000 
C         13.12000       12.05000        9.40000 
H         13.97000       12.57000        9.83000 
H         13.08000       11.83000        8.34000 
C         11.31000       11.06000       12.44000 
H         10.74000       10.19000       12.14000 
H         11.31000       11.16000       13.52000 
  
C          6.70000       11.00000        3.11000 -0.302700
H          7.57000       10.61000        3.65000 0.00070
Cl         7.31000       12.34000        2.11000 0.30060
Cl         5.71000        9.82000        2.21000 0.30060
Cl         5.70000       11.94000        4.23000 0.30060
C          2.35000       11.97000        6.12000 -0.302700
H          3.35000       12.31000        6.43000 0.00070
Cl         1.63000       10.70000        7.21000 0.30060
Cl         1.17000       13.35000        6.10000 0.30060
Cl         2.47000       11.41000        4.40000 0.30060
C          7.26000       17.07000       13.14000 -0.302700
H          7.43000       16.21000       12.49000 0.00070
Cl         7.25000       18.58000       12.23000 0.30060
Cl         5.59000       16.93000       13.85000 0.30060
Cl         8.61000       17.18000       14.32000 0.30060
C          8.34000       17.50000        6.86000 -0.302700
H          7.97000       18.30000        6.22000 0.00070
Cl         7.74000       17.86000        8.46000 0.30060
Cl         7.70000       16.00000        6.27000 0.30060
Cl        10.07000       17.60000        6.63000 0.30060
C         21.58000        7.39000       12.89000 -0.302700
H         21.87000        6.45000       13.37000 0.00070
Cl        22.39000        8.75000       13.74000 0.30060
Cl        22.07000        7.19000       11.14000 0.30060
Cl        19.81000        7.60000       12.90000 0.30060
C          9.36000        6.23000       20.30000 -0.302700
H          8.58000        6.83000       20.78000 0.00070
Cl         9.74000        6.80000       18.60000 0.30060
Cl        10.79000        6.11000       21.45000 0.30060
Cl         8.48000        4.65000       20.24000 0.30060
C         19.71000        5.68000        8.42000 -0.302700
H         20.41000        6.47000        8.71000 0.00070
Cl        19.10000        4.95000        9.89000 0.30060
Cl        18.36000        6.34000        7.43000 0.30060
Cl        20.65000        4.48000        7.48000 0.30060
C         13.33000        4.27000       16.66000 -0.302700
H         13.19000        4.08000       17.73000 0.00070
Cl        11.64000        4.17000       15.87000 0.30060
Cl        14.03000        5.91000       16.39000 0.30060
Cl        14.50000        3.08000       16.14000 0.30060
C         10.65000       12.88000       18.84000 -0.302700
H         11.65000       12.46000       18.72000 0.00070
Cl         9.69000       11.51000       19.48000 0.30060
Cl        10.84000       14.23000       19.97000 0.30060
Cl        10.11000       13.46000       17.19000 0.30060
C         20.48000       15.14000        8.17000 -0.302700
H         20.09000       14.80000        7.20000 0.00070
Cl        22.12000       15.75000        8.15000 0.30060
Cl        19.52000       16.55000        8.71000 0.30060
Cl        20.20000       13.77000        9.21000 0.30060
C         14.08000        3.95000        8.53000 -0.302700
H         14.66000        3.06000        8.78000 0.00070
Cl        12.68000        3.41000        7.56000 0.30060
Cl        13.66000        4.73000       10.05000 0.30060
Cl        15.16000        5.08000        7.62000 0.30060
C         14.29000       10.39000       17.62000 -0.302700
H         14.61000       10.76000       18.60000 0.00070
Cl        13.95000       11.86000       16.65000 0.30060
Cl        15.67000        9.42000       16.90000 0.30060
Cl        12.79000        9.39000       17.75000 0.30060
C         18.44000       12.49000       15.15000 -0.302700
H         17.43000       12.65000       14.77000 0.00070
Cl        19.45000       13.80000       14.49000 0.30060
Cl        18.35000       12.56000       16.91000 0.30060
Cl        19.19000       10.94000       14.55000 0.30060
C         13.77000        8.99000        5.13000 -0.302700
H         14.58000        9.67000        4.88000 0.00070
Cl        14.31000        7.84000        6.40000 0.30060
Cl        12.29000        9.82000        5.63000 0.30060
Cl        13.47000        8.23000        3.53000 0.30060
C         14.01000       17.86000        4.18000 -0.302700
H         13.56000       18.51000        4.93000 0.00070
Cl        15.56000       17.22000        4.68000 0.30060
Cl        13.01000       16.51000        3.89000 0.30060
Cl        14.31000       18.83000        2.64000 0.30060
C          7.72000        9.90000       16.10000 -0.302700
H          7.16000       10.82000       15.90000 0.00070
Cl         7.56000        8.73000       14.76000 0.30060
Cl         9.41000       10.34000       16.37000 0.30060
Cl         6.95000        9.34000       17.61000 0.30060
C         20.34000       11.14000        5.55000 -0.302700
H         20.00000       10.89000        6.56000 0.00070
Cl        20.30000       12.92000        5.35000 0.30060
Cl        21.98000       10.53000        5.29000 0.30060
Cl        19.28000       10.43000        4.27000 0.30060
C          6.15000        8.52000        7.89000 -0.302700
H          6.42000        7.68000        7.25000 0.00070
Cl         5.58000        9.84000        6.86000 0.30060
Cl         4.81000        8.04000        8.94000 0.30060
Cl         7.71000        8.71000        8.82000 0.30060
C         16.53000       19.49000       11.96000 -0.302700
H         17.38000       19.92000       12.50000 0.00070
Cl        16.99000       17.80000       11.44000 0.30060
Cl        15.13000       19.57000       13.02000 0.30060
Cl        16.29000       20.49000       10.49000 0.30060
C         13.56000       17.02000       10.81000 -0.302700
H         14.15000       17.64000       11.49000 0.00070
Cl        14.65000       15.95000        9.93000 0.30060
Cl        12.20000       16.26000       11.63000 0.30060
Cl        13.01000       18.21000        9.63000 0.30060
C         17.81000        5.26000        4.08000 -0.302700
H         17.95000        5.28000        5.16000 0.00070
Cl        17.98000        3.50000        3.58000 0.30060
Cl        16.15000        5.87000        3.80000 0.30060
Cl        18.95000        6.34000        3.32000 0.30060
C         10.71000       13.36000        6.89000 -0.302700
H         11.34000       12.47000        6.78000 0.00070
Cl        10.16000       13.84000        5.29000 0.30060
Cl         9.28000       12.79000        7.85000 0.30060
Cl        11.48000       14.60000        7.88000 0.30060
C         14.29000       15.38000       15.14000 -0.302700
H         14.41000       14.83000       16.07000 0.00070
Cl        12.89000       16.41000       15.40000 0.30060
Cl        15.79000       16.42000       15.02000 0.30060
Cl        13.95000       14.31000       13.81000 0.30060
C          4.33000       14.87000        8.41000 -0.302700
H          3.32000       14.70000        8.78000 0.00070
Cl         4.86000       16.09000        9.62000 0.30060
Cl         5.30000       13.34000        8.51000 0.30060
Cl         4.24000       15.61000        6.80000 0.30060
C          8.87000       13.17000       11.24000 -0.302700
H          9.77000       12.86000       10.69000 0.00070
Cl         7.85000       14.40000       10.36000 0.30060
Cl         7.82000       11.88000       11.75000 0.30060
Cl         9.37000       14.08000       12.65000 0.30060
C         18.99000        5.09000       16.17000 -0.302700
H         19.02000        4.90000       17.24000 0.00070
Cl        20.67000        5.34000       15.77000 0.30060
Cl        18.31000        3.71000       15.29000 0.30060
Cl        18.01000        6.57000       15.80000 0.30060
C          3.94000       12.08000       12.13000 -0.302700
H          4.83000       12.52000       11.68000 0.00070
Cl         2.57000       12.22000       10.93000 0.30060
Cl         4.32000       10.34000       12.31000 0.30060
Cl         3.53000       12.84000       13.62000 0.30060
C         14.53000        8.97000       11.57000 -0.302700
H         13.89000        9.48000       10.84000 0.00070
Cl        15.58000        7.91000       10.56000 0.30060
Cl        15.49000       10.22000       12.32000 0.30060
Cl        13.37000        8.14000       12.67000 0.30060
C          8.75000        6.27000        4.78000 -0.302700
H          9.33000        5.72000        4.04000 0.00070
Cl         9.45000        6.12000        6.41000 0.30060
Cl         8.77000        7.93000        4.22000 0.30060
Cl         7.08000        5.69000        4.79000 0.30060
C         18.24000        9.97000        9.67000 -0.302700
H         17.80000        9.05000       10.06000 0.00070
Cl        18.36000       11.19000       10.94000 0.30060
Cl        19.72000        9.56000        8.73000 0.30060
Cl        16.95000       10.59000        8.64000 0.30060
C         15.87000       13.78000        5.92000 -0.302700
H         16.34000       14.67000        5.50000 0.00070
Cl        14.16000       13.82000        5.49000 0.30060
Cl        16.64000       12.32000        5.21000 0.30060
Cl        16.21000       13.82000        7.64000 0.30060

