%Mem = 2GB
%nproc=16
# b3lyp/6-31g* td 

Butadiene tddft 

0 1
C         13.51000       13.17000       10.52000 
H         13.43000       13.33000        9.45000 
C         12.37000       12.76000       11.25000 
H         12.37000       12.82000       12.34000 
C         11.27000       12.24000       10.74000 
H         11.21000       11.99000        9.69000 
H         10.40000       11.91000       11.29000 
C         14.67000       13.51000       11.14000 
H         14.58000       13.51000       12.22000 
H         15.51000       13.87000       10.54000 
  
C         17.87000       14.60000       12.82000 -0.302700
H         17.93000       13.69000       12.21000 0.00070
Cl        17.44000       15.90000       11.78000 0.30060
Cl        16.60000       14.34000       14.03000 0.30060
Cl        19.47000       14.61000       13.57000 0.30060
C          5.92000       15.40000       15.13000 -0.302700
H          5.52000       15.74000       14.17000 0.00070
Cl         4.60000       15.37000       16.38000 0.30060
Cl         6.71000       13.82000       14.86000 0.30060
Cl         7.11000       16.72000       15.42000 0.30060
C         18.86000       19.24000        9.92000 -0.302700
H         18.88000       18.17000        9.73000 0.00070
Cl        20.60000       19.62000       10.16000 0.30060
Cl        18.28000       20.07000        8.50000 0.30060
Cl        17.99000       19.65000       11.41000 0.30060
C         17.28000       17.70000       16.31000 -0.302700
H         16.62000       16.83000       16.20000 0.00070
Cl        18.71000       17.06000       17.01000 0.30060
Cl        17.66000       18.24000       14.66000 0.30060
Cl        16.50000       19.03000       17.23000 0.30060
C          3.33000        9.83000       15.28000 -0.302700
H          3.70000       10.31000       16.19000 0.00070
Cl         4.30000       10.31000       13.85000 0.30060
Cl         3.49000        8.08000       15.50000 0.30060
Cl         1.58000       10.18000       15.07000 0.30060
C         18.52000       10.82000       11.17000 -0.302700
H         18.85000        9.86000       10.77000 0.00070
Cl        19.26000       10.91000       12.83000 0.30060
Cl        19.23000       12.07000       10.15000 0.30060
Cl        16.73000       10.90000       11.32000 0.30060
C         12.53000        9.60000       17.94000 -0.302700
H         11.72000       10.24000       17.56000 0.00070
Cl        11.83000        8.03000       18.51000 0.30060
Cl        13.79000        9.40000       16.62000 0.30060
Cl        13.18000       10.38000       19.46000 0.30060
C         14.22000        8.95000        3.48000 -0.302700
H         13.80000        9.86000        3.06000 0.00070
Cl        15.79000        9.52000        4.13000 0.30060
Cl        13.10000        8.62000        4.79000 0.30060
Cl        14.41000        7.83000        2.11000 0.30060
C         14.85000        5.48000        5.22000 -0.302700
H         14.85000        6.39000        4.62000 0.00070
Cl        13.34000        5.50000        6.24000 0.30060
Cl        15.23000        4.03000        4.17000 0.30060
Cl        16.30000        5.60000        6.23000 0.30060
C         11.52000        7.21000       12.63000 -0.302700
H         12.59000        6.98000       12.57000 0.00070
Cl        11.07000        7.17000       14.40000 0.30060
Cl        11.19000        8.83000       11.90000 0.30060
Cl        10.49000        5.95000       11.85000 0.30060
C         12.42000       20.05000       14.34000 -0.302700
H         12.79000       20.09000       13.31000 0.00070
Cl        12.01000       21.77000       14.84000 0.30060
Cl        11.18000       18.77000       14.21000 0.30060
Cl        13.56000       19.29000       15.52000 0.30060
C         16.60000       21.23000        4.67000 -0.302700
H         16.36000       20.84000        3.68000 0.00070
Cl        16.50000       23.00000        4.39000 0.30060
Cl        15.31000       20.51000        5.68000 0.30060
Cl        18.20000       20.74000        5.27000 0.30060
C          5.41000        6.09000        8.12000 -0.302700
H          5.36000        6.67000        7.20000 0.00070
Cl         4.70000        4.58000        7.69000 0.30060
Cl         7.24000        5.92000        8.47000 0.30060
Cl         4.54000        7.02000        9.44000 0.30060
C         11.84000       14.43000       15.73000 -0.302700
H         11.31000       14.87000       16.58000 0.00070
Cl        13.44000       15.30000       15.67000 0.30060
Cl        12.08000       12.64000       15.88000 0.30060
Cl        10.81000       14.71000       14.29000 0.30060
C         21.19000       13.30000       17.06000 -0.302700
H         21.88000       13.02000       17.85000 0.00070
Cl        21.62000       14.93000       16.49000 0.30060
Cl        21.38000       12.05000       15.75000 0.30060
Cl        19.58000       13.33000       17.75000 0.30060
C         14.03000       19.82000       10.27000 -0.302700
H         14.96000       19.53000        9.78000 0.00070
Cl        14.53000       20.71000       11.73000 0.30060
Cl        13.13000       20.96000        9.20000 0.30060
Cl        13.05000       18.45000       10.71000 0.30060
C         16.57000       16.54000        3.65000 -0.302700
H         16.43000       17.42000        3.02000 0.00070
Cl        15.35000       15.30000        3.10000 0.30060
Cl        18.27000       15.94000        3.77000 0.30060
Cl        16.22000       17.07000        5.33000 0.30060
C          6.48000       21.31000       13.81000 -0.302700
H          7.02000       21.30000       14.76000 0.00070
Cl         4.79000       20.85000       14.30000 0.30060
Cl         6.42000       22.96000       13.19000 0.30060
Cl         7.15000       19.95000       12.76000 0.30060
C          7.05000        9.19000       12.81000 -0.302700
H          5.96000        9.30000       12.72000 0.00070
Cl         7.92000       10.59000       13.50000 0.30060
Cl         7.37000        7.77000       13.75000 0.30060
Cl         7.67000        8.84000       11.23000 0.30060
C         19.79000        5.09000        8.40000 -0.302700
H         20.14000        4.32000        9.10000 0.00070
Cl        19.74000        4.25000        6.78000 0.30060
Cl        18.23000        5.78000        8.85000 0.30060
Cl        21.03000        6.37000        8.51000 0.30060
C          9.80000       20.51000       17.08000 -0.302700
H         10.20000       20.35000       16.08000 0.00070
Cl        10.10000       22.20000       17.54000 0.30060
Cl         8.07000       20.18000       17.18000 0.30060
Cl        10.74000       19.46000       18.16000 0.30060
C          5.18000       18.59000        8.23000 -0.302700
H          4.83000       18.76000        9.25000 0.00070
Cl         5.45000       20.02000        7.17000 0.30060
Cl         6.63000       17.61000        8.53000 0.30060
Cl         3.82000       17.71000        7.44000 0.30060
C         10.32000       19.70000        5.41000 -0.302700
H         10.64000       19.85000        4.37000 0.00070
Cl         9.38000       21.14000        5.84000 0.30060
Cl         9.18000       18.37000        5.65000 0.30060
Cl        11.69000       19.39000        6.43000 0.30060
C         11.81000       15.74000        7.29000 -0.302700
H         11.63000       16.78000        7.56000 0.00070
Cl        13.49000       15.26000        7.82000 0.30060
Cl        10.61000       14.79000        8.20000 0.30060
Cl        11.68000       15.51000        5.51000 0.30060
C         12.10000        1.65000       10.80000 -0.302700
H         11.02000        1.68000       11.00000 0.00070
Cl        12.78000        3.33000       10.95000 0.30060
Cl        12.95000        0.55000       11.91000 0.30060
Cl        12.24000        1.09000        9.20000 0.30060
C          6.53000       14.44000        3.73000 -0.302700
H          5.67000       14.99000        4.12000 0.00070
Cl         7.69000       14.49000        5.11000 0.30060
Cl         6.10000       12.74000        3.32000 0.30060
Cl         7.21000       15.18000        2.26000 0.30060
C         19.97000       15.70000        8.19000 -0.302700
H         20.73000       15.08000        7.72000 0.00070
Cl        20.43000       15.71000        9.91000 0.30060
Cl        19.96000       17.32000        7.38000 0.30060
Cl        18.54000       14.72000        7.84000 0.30060
C          7.28000        9.60000       17.93000 -0.302700
H          7.40000        9.86000       18.98000 0.00070
Cl         8.96000        9.79000       17.39000 0.30060
Cl         6.58000        7.98000       17.63000 0.30060
Cl         6.44000       10.96000       17.18000 0.30060
C          9.48000       21.38000        9.98000 -0.302700
H         10.10000       21.88000        9.23000 0.00070
Cl         9.97000       21.99000       11.60000 0.30060
Cl         7.90000       22.06000        9.70000 0.30060
Cl         9.71000       19.64000        9.75000 0.30060
C          9.28000        8.60000        6.22000 -0.302700
H          9.92000        9.33000        5.71000 0.00070
Cl         9.46000        8.96000        8.00000 0.30060
Cl         7.58000        8.71000        5.69000 0.30060
Cl         9.88000        6.96000        5.98000 0.30060
C          5.78000       12.98000       10.57000 -0.302700
H          6.31000       13.19000       11.50000 0.00070
Cl         4.44000       11.87000       10.97000 0.30060
Cl         5.06000       14.50000        9.83000 0.30060
Cl         6.88000       12.07000        9.50000 0.30060
C         14.97000       13.45000       19.99000 -0.302700
H         14.14000       12.79000       20.24000 0.00070
Cl        16.38000       12.43000       19.60000 0.30060
Cl        14.45000       14.53000       18.68000 0.30060
Cl        15.24000       14.48000       21.45000 0.30060
C         15.66000        6.54000       13.85000 -0.302700
H         15.76000        6.29000       14.91000 0.00070
Cl        15.15000        8.21000       13.60000 0.30060
Cl        17.40000        6.42000       13.39000 0.30060
Cl        14.70000        5.26000       13.02000 0.30060
C          3.67000       11.99000        7.59000 -0.302700
H          3.73000       12.00000        8.68000 0.00070
Cl         4.30000       13.48000        6.82000 0.30060
Cl         4.69000       10.60000        7.23000 0.30060
Cl         2.09000       11.54000        7.08000 0.30060
C         13.44000       10.16000        8.54000 -0.302700
H         13.27000       10.46000        9.58000 0.00070
Cl        12.75000       11.32000        7.40000 0.30060
Cl        15.18000       10.27000        8.36000 0.30060
Cl        12.78000        8.58000        8.11000 0.30060
C         20.45000       11.09000        6.55000 -0.302700
H         20.37000       11.84000        7.34000 0.00070
Cl        21.98000       10.22000        6.59000 0.30060
Cl        19.05000        9.97000        6.66000 0.30060
Cl        20.45000       11.98000        5.02000 0.30060
C         10.17000       11.82000        3.97000 -0.302700
H          9.67000       12.71000        3.57000 0.00070
Cl        11.92000       12.07000        3.95000 0.30060
Cl         9.75000       11.73000        5.66000 0.30060
Cl         9.70000       10.32000        3.22000 0.30060

%Mem = 2GB
%nproc=16
# b3lyp/6-31g* td 

Butadiene tddft 

0 1
C         13.51000       13.17000       10.52000 
H         13.43000       13.33000        9.45000 
C         12.37000       12.76000       11.25000 
H         12.37000       12.82000       12.34000 
C         11.27000       12.24000       10.74000 
H         11.21000       11.99000        9.69000 
H         10.40000       11.91000       11.29000 
C         14.67000       13.51000       11.14000 
H         14.58000       13.51000       12.22000 
H         15.51000       13.87000       10.54000 
  
C         17.87000       14.60000       12.82000 -0.302700
H         17.93000       13.69000       12.21000 0.00070
Cl        17.44000       15.90000       11.78000 0.30060
Cl        16.60000       14.34000       14.03000 0.30060
Cl        19.47000       14.61000       13.57000 0.30060
C          5.92000       15.40000       15.13000 -0.302700
H          5.52000       15.74000       14.17000 0.00070
Cl         4.60000       15.37000       16.38000 0.30060
Cl         6.71000       13.82000       14.86000 0.30060
Cl         7.11000       16.72000       15.42000 0.30060
C         18.86000       19.24000        9.92000 -0.302700
H         18.88000       18.17000        9.73000 0.00070
Cl        20.60000       19.62000       10.16000 0.30060
Cl        18.28000       20.07000        8.50000 0.30060
Cl        17.99000       19.65000       11.41000 0.30060
C         17.28000       17.70000       16.31000 -0.302700
H         16.62000       16.83000       16.20000 0.00070
Cl        18.71000       17.06000       17.01000 0.30060
Cl        17.66000       18.24000       14.66000 0.30060
Cl        16.50000       19.03000       17.23000 0.30060
C          3.33000        9.83000       15.28000 -0.302700
H          3.70000       10.31000       16.19000 0.00070
Cl         4.30000       10.31000       13.85000 0.30060
Cl         3.49000        8.08000       15.50000 0.30060
Cl         1.58000       10.18000       15.07000 0.30060
C         18.52000       10.82000       11.17000 -0.302700
H         18.85000        9.86000       10.77000 0.00070
Cl        19.26000       10.91000       12.83000 0.30060
Cl        19.23000       12.07000       10.15000 0.30060
Cl        16.73000       10.90000       11.32000 0.30060
C         12.53000        9.60000       17.94000 -0.302700
H         11.72000       10.24000       17.56000 0.00070
Cl        11.83000        8.03000       18.51000 0.30060
Cl        13.79000        9.40000       16.62000 0.30060
Cl        13.18000       10.38000       19.46000 0.30060
C         14.22000        8.95000        3.48000 -0.302700
H         13.80000        9.86000        3.06000 0.00070
Cl        15.79000        9.52000        4.13000 0.30060
Cl        13.10000        8.62000        4.79000 0.30060
Cl        14.41000        7.83000        2.11000 0.30060
C         14.85000        5.48000        5.22000 -0.302700
H         14.85000        6.39000        4.62000 0.00070
Cl        13.34000        5.50000        6.24000 0.30060
Cl        15.23000        4.03000        4.17000 0.30060
Cl        16.30000        5.60000        6.23000 0.30060
C         11.52000        7.21000       12.63000 -0.302700
H         12.59000        6.98000       12.57000 0.00070
Cl        11.07000        7.17000       14.40000 0.30060
Cl        11.19000        8.83000       11.90000 0.30060
Cl        10.49000        5.95000       11.85000 0.30060
C         12.42000       20.05000       14.34000 -0.302700
H         12.79000       20.09000       13.31000 0.00070
Cl        12.01000       21.77000       14.84000 0.30060
Cl        11.18000       18.77000       14.21000 0.30060
Cl        13.56000       19.29000       15.52000 0.30060
C         16.60000       21.23000        4.67000 -0.302700
H         16.36000       20.84000        3.68000 0.00070
Cl        16.50000       23.00000        4.39000 0.30060
Cl        15.31000       20.51000        5.68000 0.30060
Cl        18.20000       20.74000        5.27000 0.30060
C          5.41000        6.09000        8.12000 -0.302700
H          5.36000        6.67000        7.20000 0.00070
Cl         4.70000        4.58000        7.69000 0.30060
Cl         7.24000        5.92000        8.47000 0.30060
Cl         4.54000        7.02000        9.44000 0.30060
C         11.84000       14.43000       15.73000 -0.302700
H         11.31000       14.87000       16.58000 0.00070
Cl        13.44000       15.30000       15.67000 0.30060
Cl        12.08000       12.64000       15.88000 0.30060
Cl        10.81000       14.71000       14.29000 0.30060
C         21.19000       13.30000       17.06000 -0.302700
H         21.88000       13.02000       17.85000 0.00070
Cl        21.62000       14.93000       16.49000 0.30060
Cl        21.38000       12.05000       15.75000 0.30060
Cl        19.58000       13.33000       17.75000 0.30060
C         14.03000       19.82000       10.27000 -0.302700
H         14.96000       19.53000        9.78000 0.00070
Cl        14.53000       20.71000       11.73000 0.30060
Cl        13.13000       20.96000        9.20000 0.30060
Cl        13.05000       18.45000       10.71000 0.30060
C         16.57000       16.54000        3.65000 -0.302700
H         16.43000       17.42000        3.02000 0.00070
Cl        15.35000       15.30000        3.10000 0.30060
Cl        18.27000       15.94000        3.77000 0.30060
Cl        16.22000       17.07000        5.33000 0.30060
C          6.48000       21.31000       13.81000 -0.302700
H          7.02000       21.30000       14.76000 0.00070
Cl         4.79000       20.85000       14.30000 0.30060
Cl         6.42000       22.96000       13.19000 0.30060
Cl         7.15000       19.95000       12.76000 0.30060
C          7.05000        9.19000       12.81000 -0.302700
H          5.96000        9.30000       12.72000 0.00070
Cl         7.92000       10.59000       13.50000 0.30060
Cl         7.37000        7.77000       13.75000 0.30060
Cl         7.67000        8.84000       11.23000 0.30060
C         19.79000        5.09000        8.40000 -0.302700
H         20.14000        4.32000        9.10000 0.00070
Cl        19.74000        4.25000        6.78000 0.30060
Cl        18.23000        5.78000        8.85000 0.30060
Cl        21.03000        6.37000        8.51000 0.30060
C          9.80000       20.51000       17.08000 -0.302700
H         10.20000       20.35000       16.08000 0.00070
Cl        10.10000       22.20000       17.54000 0.30060
Cl         8.07000       20.18000       17.18000 0.30060
Cl        10.74000       19.46000       18.16000 0.30060
C          5.18000       18.59000        8.23000 -0.302700
H          4.83000       18.76000        9.25000 0.00070
Cl         5.45000       20.02000        7.17000 0.30060
Cl         6.63000       17.61000        8.53000 0.30060
Cl         3.82000       17.71000        7.44000 0.30060
C         10.32000       19.70000        5.41000 -0.302700
H         10.64000       19.85000        4.37000 0.00070
Cl         9.38000       21.14000        5.84000 0.30060
Cl         9.18000       18.37000        5.65000 0.30060
Cl        11.69000       19.39000        6.43000 0.30060
C         11.81000       15.74000        7.29000 -0.302700
H         11.63000       16.78000        7.56000 0.00070
Cl        13.49000       15.26000        7.82000 0.30060
Cl        10.61000       14.79000        8.20000 0.30060
Cl        11.68000       15.51000        5.51000 0.30060
C         12.10000        1.65000       10.80000 -0.302700
H         11.02000        1.68000       11.00000 0.00070
Cl        12.78000        3.33000       10.95000 0.30060
Cl        12.95000        0.55000       11.91000 0.30060
Cl        12.24000        1.09000        9.20000 0.30060
C          6.53000       14.44000        3.73000 -0.302700
H          5.67000       14.99000        4.12000 0.00070
Cl         7.69000       14.49000        5.11000 0.30060
Cl         6.10000       12.74000        3.32000 0.30060
Cl         7.21000       15.18000        2.26000 0.30060
C         19.97000       15.70000        8.19000 -0.302700
H         20.73000       15.08000        7.72000 0.00070
Cl        20.43000       15.71000        9.91000 0.30060
Cl        19.96000       17.32000        7.38000 0.30060
Cl        18.54000       14.72000        7.84000 0.30060
C          7.28000        9.60000       17.93000 -0.302700
H          7.40000        9.86000       18.98000 0.00070
Cl         8.96000        9.79000       17.39000 0.30060
Cl         6.58000        7.98000       17.63000 0.30060
Cl         6.44000       10.96000       17.18000 0.30060
C          9.48000       21.38000        9.98000 -0.302700
H         10.10000       21.88000        9.23000 0.00070
Cl         9.97000       21.99000       11.60000 0.30060
Cl         7.90000       22.06000        9.70000 0.30060
Cl         9.71000       19.64000        9.75000 0.30060
C          9.28000        8.60000        6.22000 -0.302700
H          9.92000        9.33000        5.71000 0.00070
Cl         9.46000        8.96000        8.00000 0.30060
Cl         7.58000        8.71000        5.69000 0.30060
Cl         9.88000        6.96000        5.98000 0.30060
C          5.78000       12.98000       10.57000 -0.302700
H          6.31000       13.19000       11.50000 0.00070
Cl         4.44000       11.87000       10.97000 0.30060
Cl         5.06000       14.50000        9.83000 0.30060
Cl         6.88000       12.07000        9.50000 0.30060
C         14.97000       13.45000       19.99000 -0.302700
H         14.14000       12.79000       20.24000 0.00070
Cl        16.38000       12.43000       19.60000 0.30060
Cl        14.45000       14.53000       18.68000 0.30060
Cl        15.24000       14.48000       21.45000 0.30060
C         15.66000        6.54000       13.85000 -0.302700
H         15.76000        6.29000       14.91000 0.00070
Cl        15.15000        8.21000       13.60000 0.30060
Cl        17.40000        6.42000       13.39000 0.30060
Cl        14.70000        5.26000       13.02000 0.30060
C          3.67000       11.99000        7.59000 -0.302700
H          3.73000       12.00000        8.68000 0.00070
Cl         4.30000       13.48000        6.82000 0.30060
Cl         4.69000       10.60000        7.23000 0.30060
Cl         2.09000       11.54000        7.08000 0.30060
C         13.44000       10.16000        8.54000 -0.302700
H         13.27000       10.46000        9.58000 0.00070
Cl        12.75000       11.32000        7.40000 0.30060
Cl        15.18000       10.27000        8.36000 0.30060
Cl        12.78000        8.58000        8.11000 0.30060
C         20.45000       11.09000        6.55000 -0.302700
H         20.37000       11.84000        7.34000 0.00070
Cl        21.98000       10.22000        6.59000 0.30060
Cl        19.05000        9.97000        6.66000 0.30060
Cl        20.45000       11.98000        5.02000 0.30060
C         10.17000       11.82000        3.97000 -0.302700
H          9.67000       12.71000        3.57000 0.00070
Cl        11.92000       12.07000        3.95000 0.30060
Cl         9.75000       11.73000        5.66000 0.30060
Cl         9.70000       10.32000        3.22000 0.30060

