%Mem = 2GB
%nproc=16
# b3lyp/6-31g* td 

Butadiene tddft 

0 1
C         11.25000       11.18000       10.95000 
H         10.83000       11.88000       10.22000 
C         10.37000       10.92000       12.05000 
H         10.70000       10.07000       12.64000 
C          9.37000       11.70000       12.46000 
H          9.01000       12.60000       11.96000 
H          8.78000       11.46000       13.34000 
C         12.52000       10.81000       11.05000 
H         12.86000       10.10000       11.80000 
H         13.16000       11.04000       10.20000 
  
C         15.03000       20.72000       16.98000 -0.302700
H         14.54000       20.57000       17.94000 0.00070
Cl        14.50000       19.26000       16.17000 0.30060
Cl        14.43000       22.14000       16.23000 0.30060
Cl        16.74000       20.77000       17.28000 0.30060
C          7.26000        6.31000        9.65000 -0.302700
H          7.35000        5.48000       10.36000 0.00070
Cl         8.75000        7.28000        9.66000 0.30060
Cl         7.02000        5.68000        8.02000 0.30060
Cl         5.89000        7.34000       10.20000 0.30060
C          2.05000       12.17000       16.85000 -0.302700
H          2.87000       12.90000       16.83000 0.00070
Cl         0.72000       12.76000       17.88000 0.30060
Cl         1.32000       11.93000       15.26000 0.30060
Cl         2.72000       10.72000       17.69000 0.30060
C         16.19000       14.85000       17.48000 -0.302700
H         15.54000       14.06000       17.12000 0.00070
Cl        17.41000       13.91000       18.48000 0.30060
Cl        16.93000       15.70000       16.09000 0.30060
Cl        15.27000       15.93000       18.53000 0.30060
C         15.50000       14.91000        9.24000 -0.302700
H         14.41000       14.94000        9.21000 0.00070
Cl        16.23000       16.19000        8.12000 0.30060
Cl        16.15000       15.20000       10.89000 0.30060
Cl        16.16000       13.32000        8.72000 0.30060
C         15.87000        8.66000       12.62000 -0.302700
H         14.83000        8.34000       12.62000 0.00070
Cl        16.81000        7.66000       11.57000 0.30060
Cl        15.85000       10.41000       12.24000 0.30060
Cl        16.56000        8.42000       14.29000 0.30060
C          5.74000        7.44000        4.99000 -0.302700
H          6.74000        7.23000        5.36000 0.00070
Cl         4.60000        7.56000        6.36000 0.30060
Cl         5.99000        9.01000        4.19000 0.30060
Cl         5.28000        6.26000        3.73000 0.30060
C          5.68000       12.92000       20.94000 -0.302700
H          6.00000       12.61000       21.94000 0.00070
Cl         5.38000       11.44000       20.03000 0.30060
Cl         4.22000       13.89000       21.16000 0.30060
Cl         6.98000       13.80000       20.19000 0.30060
C         10.76000        2.84000       13.49000 -0.302700
H         11.81000        2.75000       13.21000 0.00070
Cl        10.10000        4.02000       12.35000 0.30060
Cl         9.87000        1.25000       13.36000 0.30060
Cl        10.77000        3.35000       15.27000 0.30060
C         12.94000        3.03000        5.53000 -0.302700
H         13.34000        3.85000        4.92000 0.00070
Cl        13.24000        3.56000        7.22000 0.30060
Cl        11.10000        2.86000        5.40000 0.30060
Cl        13.94000        1.61000        5.06000 0.30060
C          2.47000       12.77000       11.13000 -0.302700
H          2.98000       13.37000       10.37000 0.00070
Cl         1.49000       13.92000       11.97000 0.30060
Cl         1.63000       11.46000       10.28000 0.30060
Cl         3.83000       12.17000       12.24000 0.30060
C         14.27000        7.16000        2.66000 -0.302700
H         14.36000        6.84000        1.62000 0.00070
Cl        12.73000        6.45000        3.22000 0.30060
Cl        15.75000        6.64000        3.55000 0.30060
Cl        14.10000        8.90000        2.62000 0.30060
C         14.90000        4.22000       10.56000 -0.302700
H         15.11000        3.53000        9.75000 0.00070
Cl        14.69000        5.81000        9.83000 0.30060
Cl        13.49000        3.56000       11.42000 0.30060
Cl        16.33000        3.92000       11.51000 0.30060
C         20.70000       11.80000        7.37000 -0.302700
H         21.20000       12.77000        7.33000 0.00070
Cl        19.98000       11.27000        5.79000 0.30060
Cl        21.96000       10.52000        7.72000 0.30060
Cl        19.54000       11.99000        8.74000 0.30060
C          5.95000        3.59000       13.51000 -0.302700
H          5.38000        2.96000       14.20000 0.00070
Cl         5.00000        4.74000       12.60000 0.30060
Cl         7.25000        4.48000       14.43000 0.30060
Cl         6.66000        2.55000       12.29000 0.30060
C          8.14000        9.33000       18.04000 -0.302700
H          7.25000        8.71000       18.16000 0.00070
Cl         9.32000        8.28000       17.15000 0.30060
Cl         7.56000       10.80000       17.07000 0.30060
Cl         8.77000       10.03000       19.58000 0.30060
C         16.85000        9.32000        7.78000 -0.302700
H         17.66000        9.86000        8.28000 0.00070
Cl        16.73000        9.82000        6.02000 0.30060
Cl        17.38000        7.65000        7.89000 0.30060
Cl        15.25000        9.66000        8.50000 0.30060
C         17.74000       10.01000       18.17000 -0.302700
H         18.29000       10.87000       18.53000 0.00070
Cl        17.30000        8.89000       19.53000 0.30060
Cl        16.25000       10.71000       17.49000 0.30060
Cl        18.77000        9.07000       17.04000 0.30060
C          5.52000        4.91000       17.64000 -0.302700
H          5.48000        4.96000       16.55000 0.00070
Cl         5.72000        6.58000       18.27000 0.30060
Cl         4.00000        4.38000       18.40000 0.30060
Cl         6.88000        3.86000       18.08000 0.30060
C         21.41000        8.93000       12.66000 -0.302700
H         21.66000        8.12000       11.97000 0.00070
Cl        20.26000        8.08000       13.84000 0.30060
Cl        22.84000        9.49000       13.63000 0.30060
Cl        20.55000       10.28000       11.83000 0.30060
C          8.65000       21.10000        9.64000 -0.302700
H          9.37000       21.35000        8.86000 0.00070
Cl         8.12000       19.40000        9.16000 0.30060
Cl         9.47000       20.94000       11.28000 0.30060
Cl         7.39000       22.30000        9.46000 0.30060
C         11.92000       19.41000        8.75000 -0.302700
H         10.89000       19.23000        9.06000 0.00070
Cl        11.71000       20.93000        7.87000 0.30060
Cl        12.94000       19.50000       10.17000 0.30060
Cl        12.51000       18.03000        7.72000 0.30060
C         11.95000       16.12000       13.70000 -0.302700
H         12.34000       16.86000       14.41000 0.00070
Cl        10.14000       16.10000       13.86000 0.30060
Cl        12.60000       16.75000       12.16000 0.30060
Cl        12.74000       14.52000       13.97000 0.30060
C          9.40000        6.74000        4.93000 -0.302700
H         10.49000        6.65000        4.99000 0.00070
Cl         8.60000        5.22000        5.11000 0.30060
Cl         9.08000        7.99000        6.09000 0.30060
Cl         9.12000        7.27000        3.26000 0.30060
C         12.80000        6.53000       19.01000 -0.302700
H         13.39000        5.93000       19.70000 0.00070
Cl        12.22000        5.58000       17.66000 0.30060
Cl        11.48000        7.43000       19.80000 0.30060
Cl        13.95000        7.66000       18.28000 0.30060
C          7.57000       14.67000        6.54000 -0.302700
H          6.87000       15.50000        6.42000 0.00070
Cl         8.07000       14.64000        8.24000 0.30060
Cl         6.67000       13.17000        6.08000 0.30060
Cl         8.96000       15.15000        5.58000 0.30060
C          9.09000        2.48000        9.11000 -0.302700
H          8.78000        2.94000       10.06000 0.00070
Cl        10.32000        1.25000        9.38000 0.30060
Cl         7.83000        1.88000        8.05000 0.30060
Cl         9.93000        3.94000        8.52000 0.30060
C          6.53000       10.95000        9.28000 -0.302700
H          6.24000       10.13000        8.63000 0.00070
Cl         5.42000       12.29000        8.93000 0.30060
Cl         6.46000       10.37000       10.92000 0.30060
Cl         8.20000       11.38000        8.82000 0.30060
C         10.66000       14.48000       18.41000 -0.302700
H         11.73000       14.65000       18.24000 0.00070
Cl        10.47000       14.88000       20.13000 0.30060
Cl         9.68000       15.64000       17.51000 0.30060
Cl        10.24000       12.79000       18.05000 0.30060
C          4.04000       18.41000        9.98000 -0.302700
H          2.95000       18.50000        9.98000 0.00070
Cl         4.33000       16.77000       10.61000 0.30060
Cl         4.47000       18.62000        8.22000 0.30060
Cl         4.68000       19.69000       11.08000 0.30060
C         12.39000        6.61000       13.98000 -0.302700
H         11.69000        5.96000       14.51000 0.00070
Cl        11.90000        6.61000       12.30000 0.30060
Cl        12.28000        8.27000       14.61000 0.30060
Cl        14.03000        5.97000       14.29000 0.30060
C         20.06000       11.98000       15.67000 -0.302700
H         20.12000       10.89000       15.74000 0.00070
Cl        20.48000       12.50000       17.28000 0.30060
Cl        21.28000       12.55000       14.48000 0.30060
Cl        18.37000       12.28000       15.20000 0.30060
C         20.29000       15.70000       11.39000 -0.302700
H         20.53000       14.79000       10.82000 0.00070
Cl        19.28000       16.72000       10.27000 0.30060
Cl        19.35000       15.22000       12.88000 0.30060
Cl        21.72000       16.57000       11.90000 0.30060
C         12.14000       12.20000        5.85000 -0.302700
H         11.18000       11.91000        5.41000 0.00070
Cl        13.14000       10.75000        5.87000 0.30060
Cl        12.85000       13.37000        4.76000 0.30060
Cl        11.64000       12.82000        7.44000 0.30060
C          3.40000        8.44000       14.72000 -0.302700
H          2.51000        8.90000       15.16000 0.00070
Cl         4.79000        9.36000       15.34000 0.30060
Cl         3.57000        6.81000       15.30000 0.30060
Cl         3.39000        8.38000       12.95000 0.30060

%Mem = 2GB
%nproc=16
# b3lyp/6-31g* td 

Butadiene tddft 

0 1
C         11.25000       11.18000       10.95000 
H         10.83000       11.88000       10.22000 
C         10.37000       10.92000       12.05000 
H         10.70000       10.07000       12.64000 
C          9.37000       11.70000       12.46000 
H          9.01000       12.60000       11.96000 
H          8.78000       11.46000       13.34000 
C         12.52000       10.81000       11.05000 
H         12.86000       10.10000       11.80000 
H         13.16000       11.04000       10.20000 
  
C         15.03000       20.72000       16.98000 -0.302700
H         14.54000       20.57000       17.94000 0.00070
Cl        14.50000       19.26000       16.17000 0.30060
Cl        14.43000       22.14000       16.23000 0.30060
Cl        16.74000       20.77000       17.28000 0.30060
C          7.26000        6.31000        9.65000 -0.302700
H          7.35000        5.48000       10.36000 0.00070
Cl         8.75000        7.28000        9.66000 0.30060
Cl         7.02000        5.68000        8.02000 0.30060
Cl         5.89000        7.34000       10.20000 0.30060
C          2.05000       12.17000       16.85000 -0.302700
H          2.87000       12.90000       16.83000 0.00070
Cl         0.72000       12.76000       17.88000 0.30060
Cl         1.32000       11.93000       15.26000 0.30060
Cl         2.72000       10.72000       17.69000 0.30060
C         16.19000       14.85000       17.48000 -0.302700
H         15.54000       14.06000       17.12000 0.00070
Cl        17.41000       13.91000       18.48000 0.30060
Cl        16.93000       15.70000       16.09000 0.30060
Cl        15.27000       15.93000       18.53000 0.30060
C         15.50000       14.91000        9.24000 -0.302700
H         14.41000       14.94000        9.21000 0.00070
Cl        16.23000       16.19000        8.12000 0.30060
Cl        16.15000       15.20000       10.89000 0.30060
Cl        16.16000       13.32000        8.72000 0.30060
C         15.87000        8.66000       12.62000 -0.302700
H         14.83000        8.34000       12.62000 0.00070
Cl        16.81000        7.66000       11.57000 0.30060
Cl        15.85000       10.41000       12.24000 0.30060
Cl        16.56000        8.42000       14.29000 0.30060
C          5.74000        7.44000        4.99000 -0.302700
H          6.74000        7.23000        5.36000 0.00070
Cl         4.60000        7.56000        6.36000 0.30060
Cl         5.99000        9.01000        4.19000 0.30060
Cl         5.28000        6.26000        3.73000 0.30060
C          5.68000       12.92000       20.94000 -0.302700
H          6.00000       12.61000       21.94000 0.00070
Cl         5.38000       11.44000       20.03000 0.30060
Cl         4.22000       13.89000       21.16000 0.30060
Cl         6.98000       13.80000       20.19000 0.30060
C         10.76000        2.84000       13.49000 -0.302700
H         11.81000        2.75000       13.21000 0.00070
Cl        10.10000        4.02000       12.35000 0.30060
Cl         9.87000        1.25000       13.36000 0.30060
Cl        10.77000        3.35000       15.27000 0.30060
C         12.94000        3.03000        5.53000 -0.302700
H         13.34000        3.85000        4.92000 0.00070
Cl        13.24000        3.56000        7.22000 0.30060
Cl        11.10000        2.86000        5.40000 0.30060
Cl        13.94000        1.61000        5.06000 0.30060
C          2.47000       12.77000       11.13000 -0.302700
H          2.98000       13.37000       10.37000 0.00070
Cl         1.49000       13.92000       11.97000 0.30060
Cl         1.63000       11.46000       10.28000 0.30060
Cl         3.83000       12.17000       12.24000 0.30060
C         14.27000        7.16000        2.66000 -0.302700
H         14.36000        6.84000        1.62000 0.00070
Cl        12.73000        6.45000        3.22000 0.30060
Cl        15.75000        6.64000        3.55000 0.30060
Cl        14.10000        8.90000        2.62000 0.30060
C         14.90000        4.22000       10.56000 -0.302700
H         15.11000        3.53000        9.75000 0.00070
Cl        14.69000        5.81000        9.83000 0.30060
Cl        13.49000        3.56000       11.42000 0.30060
Cl        16.33000        3.92000       11.51000 0.30060
C         20.70000       11.80000        7.37000 -0.302700
H         21.20000       12.77000        7.33000 0.00070
Cl        19.98000       11.27000        5.79000 0.30060
Cl        21.96000       10.52000        7.72000 0.30060
Cl        19.54000       11.99000        8.74000 0.30060
C          5.95000        3.59000       13.51000 -0.302700
H          5.38000        2.96000       14.20000 0.00070
Cl         5.00000        4.74000       12.60000 0.30060
Cl         7.25000        4.48000       14.43000 0.30060
Cl         6.66000        2.55000       12.29000 0.30060
C          8.14000        9.33000       18.04000 -0.302700
H          7.25000        8.71000       18.16000 0.00070
Cl         9.32000        8.28000       17.15000 0.30060
Cl         7.56000       10.80000       17.07000 0.30060
Cl         8.77000       10.03000       19.58000 0.30060
C         16.85000        9.32000        7.78000 -0.302700
H         17.66000        9.86000        8.28000 0.00070
Cl        16.73000        9.82000        6.02000 0.30060
Cl        17.38000        7.65000        7.89000 0.30060
Cl        15.25000        9.66000        8.50000 0.30060
C         17.74000       10.01000       18.17000 -0.302700
H         18.29000       10.87000       18.53000 0.00070
Cl        17.30000        8.89000       19.53000 0.30060
Cl        16.25000       10.71000       17.49000 0.30060
Cl        18.77000        9.07000       17.04000 0.30060
C          5.52000        4.91000       17.64000 -0.302700
H          5.48000        4.96000       16.55000 0.00070
Cl         5.72000        6.58000       18.27000 0.30060
Cl         4.00000        4.38000       18.40000 0.30060
Cl         6.88000        3.86000       18.08000 0.30060
C         21.41000        8.93000       12.66000 -0.302700
H         21.66000        8.12000       11.97000 0.00070
Cl        20.26000        8.08000       13.84000 0.30060
Cl        22.84000        9.49000       13.63000 0.30060
Cl        20.55000       10.28000       11.83000 0.30060
C          8.65000       21.10000        9.64000 -0.302700
H          9.37000       21.35000        8.86000 0.00070
Cl         8.12000       19.40000        9.16000 0.30060
Cl         9.47000       20.94000       11.28000 0.30060
Cl         7.39000       22.30000        9.46000 0.30060
C         11.92000       19.41000        8.75000 -0.302700
H         10.89000       19.23000        9.06000 0.00070
Cl        11.71000       20.93000        7.87000 0.30060
Cl        12.94000       19.50000       10.17000 0.30060
Cl        12.51000       18.03000        7.72000 0.30060
C         11.95000       16.12000       13.70000 -0.302700
H         12.34000       16.86000       14.41000 0.00070
Cl        10.14000       16.10000       13.86000 0.30060
Cl        12.60000       16.75000       12.16000 0.30060
Cl        12.74000       14.52000       13.97000 0.30060
C          9.40000        6.74000        4.93000 -0.302700
H         10.49000        6.65000        4.99000 0.00070
Cl         8.60000        5.22000        5.11000 0.30060
Cl         9.08000        7.99000        6.09000 0.30060
Cl         9.12000        7.27000        3.26000 0.30060
C         12.80000        6.53000       19.01000 -0.302700
H         13.39000        5.93000       19.70000 0.00070
Cl        12.22000        5.58000       17.66000 0.30060
Cl        11.48000        7.43000       19.80000 0.30060
Cl        13.95000        7.66000       18.28000 0.30060
C          7.57000       14.67000        6.54000 -0.302700
H          6.87000       15.50000        6.42000 0.00070
Cl         8.07000       14.64000        8.24000 0.30060
Cl         6.67000       13.17000        6.08000 0.30060
Cl         8.96000       15.15000        5.58000 0.30060
C          9.09000        2.48000        9.11000 -0.302700
H          8.78000        2.94000       10.06000 0.00070
Cl        10.32000        1.25000        9.38000 0.30060
Cl         7.83000        1.88000        8.05000 0.30060
Cl         9.93000        3.94000        8.52000 0.30060
C          6.53000       10.95000        9.28000 -0.302700
H          6.24000       10.13000        8.63000 0.00070
Cl         5.42000       12.29000        8.93000 0.30060
Cl         6.46000       10.37000       10.92000 0.30060
Cl         8.20000       11.38000        8.82000 0.30060
C         10.66000       14.48000       18.41000 -0.302700
H         11.73000       14.65000       18.24000 0.00070
Cl        10.47000       14.88000       20.13000 0.30060
Cl         9.68000       15.64000       17.51000 0.30060
Cl        10.24000       12.79000       18.05000 0.30060
C          4.04000       18.41000        9.98000 -0.302700
H          2.95000       18.50000        9.98000 0.00070
Cl         4.33000       16.77000       10.61000 0.30060
Cl         4.47000       18.62000        8.22000 0.30060
Cl         4.68000       19.69000       11.08000 0.30060
C         12.39000        6.61000       13.98000 -0.302700
H         11.69000        5.96000       14.51000 0.00070
Cl        11.90000        6.61000       12.30000 0.30060
Cl        12.28000        8.27000       14.61000 0.30060
Cl        14.03000        5.97000       14.29000 0.30060
C         20.06000       11.98000       15.67000 -0.302700
H         20.12000       10.89000       15.74000 0.00070
Cl        20.48000       12.50000       17.28000 0.30060
Cl        21.28000       12.55000       14.48000 0.30060
Cl        18.37000       12.28000       15.20000 0.30060
C         20.29000       15.70000       11.39000 -0.302700
H         20.53000       14.79000       10.82000 0.00070
Cl        19.28000       16.72000       10.27000 0.30060
Cl        19.35000       15.22000       12.88000 0.30060
Cl        21.72000       16.57000       11.90000 0.30060
C         12.14000       12.20000        5.85000 -0.302700
H         11.18000       11.91000        5.41000 0.00070
Cl        13.14000       10.75000        5.87000 0.30060
Cl        12.85000       13.37000        4.76000 0.30060
Cl        11.64000       12.82000        7.44000 0.30060
C          3.40000        8.44000       14.72000 -0.302700
H          2.51000        8.90000       15.16000 0.00070
Cl         4.79000        9.36000       15.34000 0.30060
Cl         3.57000        6.81000       15.30000 0.30060
Cl         3.39000        8.38000       12.95000 0.30060

