%Mem = 2GB
%nproc=16
# b3lyp/6-31g* td 

Butadiene tddft 

0 1
C         12.84000       10.59000       12.78000 
H         12.60000       10.81000       13.82000 
C         11.76000       10.54000       11.77000 
H         12.08000       10.53000       10.73000 
C         10.52000       10.44000       12.13000 
H         10.29000       10.34000       13.19000 
H          9.77000       10.53000       11.35000 
C         14.12000       10.24000       12.58000 
H         14.60000        9.94000       11.65000 
H         14.80000       10.35000       13.43000 
  
C         20.85000       10.19000       15.98000 -0.302700
H         21.31000        9.50000       15.26000 0.00070
Cl        19.28000       10.73000       15.30000 0.30060
Cl        20.75000        9.33000       17.52000 0.30060
Cl        21.98000       11.49000       16.13000 0.30060
C          7.00000       14.14000       13.95000 -0.302700
H          8.04000       13.88000       13.71000 0.00070
Cl         5.91000       13.64000       12.63000 0.30060
Cl         6.53000       13.19000       15.41000 0.30060
Cl         6.88000       15.88000       14.09000 0.30060
C          5.81000       13.77000        5.92000 -0.302700
H          6.04000       13.09000        5.10000 0.00070
Cl         4.11000       14.34000        5.92000 0.30060
Cl         6.02000       13.05000        7.63000 0.30060
Cl         6.89000       15.19000        5.92000 0.30060
C         18.43000       15.82000        9.20000 -0.302700
H         19.06000       15.51000       10.03000 0.00070
Cl        19.57000       16.22000        7.88000 0.30060
Cl        17.29000       14.54000        8.62000 0.30060
Cl        17.48000       17.22000        9.78000 0.30060
C         14.06000       13.90000       18.59000 -0.302700
H         13.76000       13.47000       17.63000 0.00070
Cl        12.63000       14.73000       19.31000 0.30060
Cl        14.52000       12.59000       19.72000 0.30060
Cl        15.37000       15.10000       18.22000 0.30060
C          2.76000        9.12000       15.87000 -0.302700
H          3.44000        8.30000       16.10000 0.00070
Cl         3.69000       10.56000       15.42000 0.30060
Cl         1.58000        8.66000       14.67000 0.30060
Cl         1.78000        9.41000       17.39000 0.30060
C         20.22000        6.17000       12.72000 -0.302700
H         19.75000        5.21000       12.50000 0.00070
Cl        21.95000        6.00000       13.08000 0.30060
Cl        20.09000        7.17000       11.23000 0.30060
Cl        19.39000        6.90000       14.08000 0.30060
C         10.61000        7.95000       21.22000 -0.302700
H          9.57000        7.60000       21.29000 0.00070
Cl        11.64000        7.46000       22.61000 0.30060
Cl        11.20000        6.99000       19.81000 0.30060
Cl        10.66000        9.77000       20.97000 0.30060
C          9.43000        3.74000        4.02000 -0.302700
H          9.23000        2.68000        3.82000 0.00070
Cl         7.92000        4.60000        4.40000 0.30060
Cl        10.34000        3.50000        5.54000 0.30060
Cl        10.30000        4.39000        2.61000 0.30060
C         17.87000        4.08000        8.84000 -0.302700
H         18.86000        3.66000        8.60000 0.00070
Cl        17.56000        5.46000        7.82000 0.30060
Cl        16.69000        2.78000        8.60000 0.30060
Cl        17.83000        4.66000       10.52000 0.30060
C         12.33000        3.99000       16.06000 -0.302700
H         12.06000        4.97000       15.66000 0.00070
Cl        14.13000        3.87000       16.06000 0.30060
Cl        11.64000        3.83000       17.68000 0.30060
Cl        11.43000        2.91000       14.99000 0.30060
C         10.40000       13.30000       16.68000 -0.302700
H         11.32000       13.43000       17.25000 0.00070
Cl         9.99000       14.96000       16.17000 0.30060
Cl        10.81000       12.35000       15.25000 0.30060
Cl         9.10000       12.81000       17.74000 0.30060
C          7.56000        1.81000        9.05000 -0.302700
H          8.44000        2.40000        8.78000 0.00070
Cl         6.13000        2.83000        9.14000 0.30060
Cl         7.39000        0.69000        7.61000 0.30060
Cl         7.88000        1.03000       10.53000 0.30060
C         13.23000        8.88000       17.22000 -0.302700
H         13.28000        8.72000       18.30000 0.00070
Cl        13.69000       10.58000       17.06000 0.30060
Cl        14.23000        7.65000       16.49000 0.30060
Cl        11.56000        8.90000       16.60000 0.30060
C         15.15000       15.32000       13.91000 -0.302700
H         16.19000       15.58000       14.10000 0.00070
Cl        14.07000       16.45000       14.79000 0.30060
Cl        15.23000       15.57000       12.12000 0.30060
Cl        15.06000       13.54000       14.29000 0.30060
C         14.73000        6.04000        4.36000 -0.302700
H         14.60000        6.41000        5.38000 0.00070
Cl        14.68000        4.24000        4.19000 0.30060
Cl        13.37000        6.70000        3.44000 0.30060
Cl        16.25000        6.82000        3.71000 0.30060
C         18.51000       12.73000        5.00000 -0.302700
H         17.42000       12.78000        5.11000 0.00070
Cl        18.79000       11.90000        3.38000 0.30060
Cl        19.02000       14.47000        5.09000 0.30060
Cl        19.28000       11.96000        6.36000 0.30060
C          7.91000        4.56000       13.15000 -0.302700
H          7.46000        5.44000       12.67000 0.00070
Cl         8.21000        5.03000       14.87000 0.30060
Cl         6.63000        3.28000       13.15000 0.30060
Cl         9.27000        4.22000       12.05000 0.30060
C         11.11000       19.28000       16.55000 -0.302700
H         10.04000       19.04000       16.52000 0.00070
Cl        11.82000       19.13000       14.90000 0.30060
Cl        11.32000       20.93000       17.20000 0.30060
Cl        11.85000       18.05000       17.70000 0.30060
C          9.33000       14.84000       21.22000 -0.302700
H          9.80000       13.91000       20.91000 0.00070
Cl         8.26000       15.45000       19.87000 0.30060
Cl         8.42000       14.55000       22.78000 0.30060
Cl        10.58000       16.05000       21.56000 0.30060
C         17.60000        5.34000       18.94000 -0.302700
H         17.69000        6.25000       19.53000 0.00070
Cl        18.06000        5.49000       17.19000 0.30060
Cl        18.42000        3.96000       19.79000 0.30060
Cl        15.80000        5.21000       19.17000 0.30060
C          9.70000       14.91000        2.86000 -0.302700
H          9.96000       15.44000        3.78000 0.00070
Cl         9.50000       13.24000        3.46000 0.30060
Cl         8.15000       15.45000        2.38000 0.30060
Cl        10.98000       14.85000        1.60000 0.30060
C          5.51000       17.75000        9.94000 -0.302700
H          6.35000       18.41000        9.72000 0.00070
Cl         4.41000       17.69000        8.46000 0.30060
Cl         6.31000       16.12000       10.28000 0.30060
Cl         4.82000       18.23000       11.44000 0.30060
C         15.76000       19.54000       15.98000 -0.302700
H         14.68000       19.41000       15.83000 0.00070
Cl        16.13000       21.18000       16.67000 0.30060
Cl        16.13000       18.40000       17.23000 0.30060
Cl        16.72000       19.34000       14.51000 0.30060
C         14.76000       17.64000        6.48000 -0.302700
H         14.23000       18.48000        6.03000 0.00070
Cl        16.51000       17.88000        6.36000 0.30060
Cl        14.25000       17.43000        8.15000 0.30060
Cl        14.39000       16.01000        5.83000 0.30060
C         10.74000       14.44000        9.05000 -0.302700
H         10.81000       15.52000        9.18000 0.00070
Cl        12.20000       13.56000        9.78000 0.30060
Cl         9.25000       13.92000        9.82000 0.30060
Cl        10.78000       14.11000        7.30000 0.30060
C         13.76000       21.93000       11.68000 -0.302700
H         14.74000       22.08000       11.23000 0.00070
Cl        12.59000       22.87000       10.70000 0.30060
Cl        13.45000       20.17000       11.62000 0.30060
Cl        13.82000       22.57000       13.36000 0.30060
C          9.50000        9.57000        4.82000 -0.302700
H          9.62000        9.60000        3.74000 0.00070
Cl        10.72000       10.66000        5.55000 0.30060
Cl         7.81000       10.01000        5.19000 0.30060
Cl         9.74000        7.93000        5.37000 0.30060
C         20.53000       13.01000       12.27000 -0.302700
H         21.38000       13.16000       12.93000 0.00070
Cl        21.17000       13.29000       10.65000 0.30060
Cl        19.90000       11.39000       12.27000 0.30060
Cl        19.07000       13.98000       12.71000 0.30060
C          6.36000        7.80000       18.59000 -0.302700
H          5.62000        8.49000       19.02000 0.00070
Cl         6.27000        6.17000       19.35000 0.30060
Cl         6.18000        7.95000       16.84000 0.30060
Cl         7.91000        8.49000       18.99000 0.30060
C         10.33000       17.87000       11.84000 -0.302700
H         10.95000       18.43000       12.55000 0.00070
Cl         8.68000       18.58000       12.02000 0.30060
Cl        11.12000       17.99000       10.20000 0.30060
Cl        10.18000       16.18000       12.34000 0.30060
C         12.18000        3.01000        8.86000 -0.302700
H         12.88000        3.27000        9.66000 0.00070
Cl        11.46000        4.63000        8.34000 0.30060
Cl        13.18000        2.23000        7.59000 0.30060
Cl        10.91000        1.85000        9.43000 0.30060
C          5.91000        9.30000       10.51000 -0.302700
H          4.96000        9.46000       10.00000 0.00070
Cl         5.77000        9.52000       12.27000 0.30060
Cl         6.42000        7.57000       10.17000 0.30060
Cl         7.11000       10.45000        9.85000 0.30060
C         16.48000        9.72000       19.44000 -0.302700
H         16.04000       10.52000       18.83000 0.00070
Cl        17.37000        8.58000       18.40000 0.30060
Cl        17.61000       10.52000       20.55000 0.30060
Cl        15.28000        8.71000       20.31000 0.30060
C         16.61000        2.26000       13.59000 -0.302700
H         15.74000        2.80000       13.20000 0.00070
Cl        17.80000        3.31000       14.39000 0.30060
Cl        15.85000        1.22000       14.82000 0.30060
Cl        17.26000        1.09000       12.45000 0.30060
C         14.66000       12.15000        1.86000 -0.302700
H         13.73000       12.07000        1.30000 0.00070
Cl        14.63000       13.70000        2.82000 0.30060
Cl        15.00000       10.86000        3.05000 0.30060
Cl        16.00000       12.23000        0.78000 0.30060
C         14.49000        6.10000       12.52000 -0.302700
H         14.42000        6.81000       11.69000 0.00070
Cl        15.90000        6.63000       13.49000 0.30060
Cl        13.08000        6.42000       13.66000 0.30060
Cl        14.49000        4.42000       11.97000 0.30060
C         17.68000        9.65000       10.15000 -0.302700
H         18.17000        9.52000       11.12000 0.00070
Cl        16.21000        8.57000       10.20000 0.30060
Cl        17.08000       11.32000       10.04000 0.30060
Cl        18.77000        9.37000        8.80000 0.30060
C         13.70000        9.37000        7.10000 -0.302700
H         12.99000        9.54000        6.28000 0.00070
Cl        15.33000        9.40000        6.37000 0.30060
Cl        13.53000       10.73000        8.30000 0.30060
Cl        13.33000        7.93000        8.03000 0.30060

%Mem = 2GB
%nproc=16
# b3lyp/6-31g* td 

Butadiene tddft 

0 1
C         12.84000       10.59000       12.78000 
H         12.60000       10.81000       13.82000 
C         11.76000       10.54000       11.77000 
H         12.08000       10.53000       10.73000 
C         10.52000       10.44000       12.13000 
H         10.29000       10.34000       13.19000 
H          9.77000       10.53000       11.35000 
C         14.12000       10.24000       12.58000 
H         14.60000        9.94000       11.65000 
H         14.80000       10.35000       13.43000 
  
C         20.85000       10.19000       15.98000 -0.302700
H         21.31000        9.50000       15.26000 0.00070
Cl        19.28000       10.73000       15.30000 0.30060
Cl        20.75000        9.33000       17.52000 0.30060
Cl        21.98000       11.49000       16.13000 0.30060
C          7.00000       14.14000       13.95000 -0.302700
H          8.04000       13.88000       13.71000 0.00070
Cl         5.91000       13.64000       12.63000 0.30060
Cl         6.53000       13.19000       15.41000 0.30060
Cl         6.88000       15.88000       14.09000 0.30060
C          5.81000       13.77000        5.92000 -0.302700
H          6.04000       13.09000        5.10000 0.00070
Cl         4.11000       14.34000        5.92000 0.30060
Cl         6.02000       13.05000        7.63000 0.30060
Cl         6.89000       15.19000        5.92000 0.30060
C         18.43000       15.82000        9.20000 -0.302700
H         19.06000       15.51000       10.03000 0.00070
Cl        19.57000       16.22000        7.88000 0.30060
Cl        17.29000       14.54000        8.62000 0.30060
Cl        17.48000       17.22000        9.78000 0.30060
C         14.06000       13.90000       18.59000 -0.302700
H         13.76000       13.47000       17.63000 0.00070
Cl        12.63000       14.73000       19.31000 0.30060
Cl        14.52000       12.59000       19.72000 0.30060
Cl        15.37000       15.10000       18.22000 0.30060
C          2.76000        9.12000       15.87000 -0.302700
H          3.44000        8.30000       16.10000 0.00070
Cl         3.69000       10.56000       15.42000 0.30060
Cl         1.58000        8.66000       14.67000 0.30060
Cl         1.78000        9.41000       17.39000 0.30060
C         20.22000        6.17000       12.72000 -0.302700
H         19.75000        5.21000       12.50000 0.00070
Cl        21.95000        6.00000       13.08000 0.30060
Cl        20.09000        7.17000       11.23000 0.30060
Cl        19.39000        6.90000       14.08000 0.30060
C         10.61000        7.95000       21.22000 -0.302700
H          9.57000        7.60000       21.29000 0.00070
Cl        11.64000        7.46000       22.61000 0.30060
Cl        11.20000        6.99000       19.81000 0.30060
Cl        10.66000        9.77000       20.97000 0.30060
C          9.43000        3.74000        4.02000 -0.302700
H          9.23000        2.68000        3.82000 0.00070
Cl         7.92000        4.60000        4.40000 0.30060
Cl        10.34000        3.50000        5.54000 0.30060
Cl        10.30000        4.39000        2.61000 0.30060
C         17.87000        4.08000        8.84000 -0.302700
H         18.86000        3.66000        8.60000 0.00070
Cl        17.56000        5.46000        7.82000 0.30060
Cl        16.69000        2.78000        8.60000 0.30060
Cl        17.83000        4.66000       10.52000 0.30060
C         12.33000        3.99000       16.06000 -0.302700
H         12.06000        4.97000       15.66000 0.00070
Cl        14.13000        3.87000       16.06000 0.30060
Cl        11.64000        3.83000       17.68000 0.30060
Cl        11.43000        2.91000       14.99000 0.30060
C         10.40000       13.30000       16.68000 -0.302700
H         11.32000       13.43000       17.25000 0.00070
Cl         9.99000       14.96000       16.17000 0.30060
Cl        10.81000       12.35000       15.25000 0.30060
Cl         9.10000       12.81000       17.74000 0.30060
C          7.56000        1.81000        9.05000 -0.302700
H          8.44000        2.40000        8.78000 0.00070
Cl         6.13000        2.83000        9.14000 0.30060
Cl         7.39000        0.69000        7.61000 0.30060
Cl         7.88000        1.03000       10.53000 0.30060
C         13.23000        8.88000       17.22000 -0.302700
H         13.28000        8.72000       18.30000 0.00070
Cl        13.69000       10.58000       17.06000 0.30060
Cl        14.23000        7.65000       16.49000 0.30060
Cl        11.56000        8.90000       16.60000 0.30060
C         15.15000       15.32000       13.91000 -0.302700
H         16.19000       15.58000       14.10000 0.00070
Cl        14.07000       16.45000       14.79000 0.30060
Cl        15.23000       15.57000       12.12000 0.30060
Cl        15.06000       13.54000       14.29000 0.30060
C         14.73000        6.04000        4.36000 -0.302700
H         14.60000        6.41000        5.38000 0.00070
Cl        14.68000        4.24000        4.19000 0.30060
Cl        13.37000        6.70000        3.44000 0.30060
Cl        16.25000        6.82000        3.71000 0.30060
C         18.51000       12.73000        5.00000 -0.302700
H         17.42000       12.78000        5.11000 0.00070
Cl        18.79000       11.90000        3.38000 0.30060
Cl        19.02000       14.47000        5.09000 0.30060
Cl        19.28000       11.96000        6.36000 0.30060
C          7.91000        4.56000       13.15000 -0.302700
H          7.46000        5.44000       12.67000 0.00070
Cl         8.21000        5.03000       14.87000 0.30060
Cl         6.63000        3.28000       13.15000 0.30060
Cl         9.27000        4.22000       12.05000 0.30060
C         11.11000       19.28000       16.55000 -0.302700
H         10.04000       19.04000       16.52000 0.00070
Cl        11.82000       19.13000       14.90000 0.30060
Cl        11.32000       20.93000       17.20000 0.30060
Cl        11.85000       18.05000       17.70000 0.30060
C          9.33000       14.84000       21.22000 -0.302700
H          9.80000       13.91000       20.91000 0.00070
Cl         8.26000       15.45000       19.87000 0.30060
Cl         8.42000       14.55000       22.78000 0.30060
Cl        10.58000       16.05000       21.56000 0.30060
C         17.60000        5.34000       18.94000 -0.302700
H         17.69000        6.25000       19.53000 0.00070
Cl        18.06000        5.49000       17.19000 0.30060
Cl        18.42000        3.96000       19.79000 0.30060
Cl        15.80000        5.21000       19.17000 0.30060
C          9.70000       14.91000        2.86000 -0.302700
H          9.96000       15.44000        3.78000 0.00070
Cl         9.50000       13.24000        3.46000 0.30060
Cl         8.15000       15.45000        2.38000 0.30060
Cl        10.98000       14.85000        1.60000 0.30060
C          5.51000       17.75000        9.94000 -0.302700
H          6.35000       18.41000        9.72000 0.00070
Cl         4.41000       17.69000        8.46000 0.30060
Cl         6.31000       16.12000       10.28000 0.30060
Cl         4.82000       18.23000       11.44000 0.30060
C         15.76000       19.54000       15.98000 -0.302700
H         14.68000       19.41000       15.83000 0.00070
Cl        16.13000       21.18000       16.67000 0.30060
Cl        16.13000       18.40000       17.23000 0.30060
Cl        16.72000       19.34000       14.51000 0.30060
C         14.76000       17.64000        6.48000 -0.302700
H         14.23000       18.48000        6.03000 0.00070
Cl        16.51000       17.88000        6.36000 0.30060
Cl        14.25000       17.43000        8.15000 0.30060
Cl        14.39000       16.01000        5.83000 0.30060
C         10.74000       14.44000        9.05000 -0.302700
H         10.81000       15.52000        9.18000 0.00070
Cl        12.20000       13.56000        9.78000 0.30060
Cl         9.25000       13.92000        9.82000 0.30060
Cl        10.78000       14.11000        7.30000 0.30060
C         13.76000       21.93000       11.68000 -0.302700
H         14.74000       22.08000       11.23000 0.00070
Cl        12.59000       22.87000       10.70000 0.30060
Cl        13.45000       20.17000       11.62000 0.30060
Cl        13.82000       22.57000       13.36000 0.30060
C          9.50000        9.57000        4.82000 -0.302700
H          9.62000        9.60000        3.74000 0.00070
Cl        10.72000       10.66000        5.55000 0.30060
Cl         7.81000       10.01000        5.19000 0.30060
Cl         9.74000        7.93000        5.37000 0.30060
C         20.53000       13.01000       12.27000 -0.302700
H         21.38000       13.16000       12.93000 0.00070
Cl        21.17000       13.29000       10.65000 0.30060
Cl        19.90000       11.39000       12.27000 0.30060
Cl        19.07000       13.98000       12.71000 0.30060
C          6.36000        7.80000       18.59000 -0.302700
H          5.62000        8.49000       19.02000 0.00070
Cl         6.27000        6.17000       19.35000 0.30060
Cl         6.18000        7.95000       16.84000 0.30060
Cl         7.91000        8.49000       18.99000 0.30060
C         10.33000       17.87000       11.84000 -0.302700
H         10.95000       18.43000       12.55000 0.00070
Cl         8.68000       18.58000       12.02000 0.30060
Cl        11.12000       17.99000       10.20000 0.30060
Cl        10.18000       16.18000       12.34000 0.30060
C         12.18000        3.01000        8.86000 -0.302700
H         12.88000        3.27000        9.66000 0.00070
Cl        11.46000        4.63000        8.34000 0.30060
Cl        13.18000        2.23000        7.59000 0.30060
Cl        10.91000        1.85000        9.43000 0.30060
C          5.91000        9.30000       10.51000 -0.302700
H          4.96000        9.46000       10.00000 0.00070
Cl         5.77000        9.52000       12.27000 0.30060
Cl         6.42000        7.57000       10.17000 0.30060
Cl         7.11000       10.45000        9.85000 0.30060
C         16.48000        9.72000       19.44000 -0.302700
H         16.04000       10.52000       18.83000 0.00070
Cl        17.37000        8.58000       18.40000 0.30060
Cl        17.61000       10.52000       20.55000 0.30060
Cl        15.28000        8.71000       20.31000 0.30060
C         16.61000        2.26000       13.59000 -0.302700
H         15.74000        2.80000       13.20000 0.00070
Cl        17.80000        3.31000       14.39000 0.30060
Cl        15.85000        1.22000       14.82000 0.30060
Cl        17.26000        1.09000       12.45000 0.30060
C         14.66000       12.15000        1.86000 -0.302700
H         13.73000       12.07000        1.30000 0.00070
Cl        14.63000       13.70000        2.82000 0.30060
Cl        15.00000       10.86000        3.05000 0.30060
Cl        16.00000       12.23000        0.78000 0.30060
C         14.49000        6.10000       12.52000 -0.302700
H         14.42000        6.81000       11.69000 0.00070
Cl        15.90000        6.63000       13.49000 0.30060
Cl        13.08000        6.42000       13.66000 0.30060
Cl        14.49000        4.42000       11.97000 0.30060
C         17.68000        9.65000       10.15000 -0.302700
H         18.17000        9.52000       11.12000 0.00070
Cl        16.21000        8.57000       10.20000 0.30060
Cl        17.08000       11.32000       10.04000 0.30060
Cl        18.77000        9.37000        8.80000 0.30060
C         13.70000        9.37000        7.10000 -0.302700
H         12.99000        9.54000        6.28000 0.00070
Cl        15.33000        9.40000        6.37000 0.30060
Cl        13.53000       10.73000        8.30000 0.30060
Cl        13.33000        7.93000        8.03000 0.30060

