%Mem = 2GB
%nproc=16
# b3lyp/6-31g* td 

Butadiene tddft 

0 1
C         10.59000       10.95000       11.71000 
H          9.68000       10.49000       12.08000 
C         11.41000       11.63000       12.71000 
H         12.25000       12.21000       12.32000 
C         11.20000       11.48000       14.05000 
H         10.46000       10.75000       14.36000 
H         11.78000       12.00000       14.81000 
C         10.87000       10.78000       10.40000 
H         11.77000       11.18000        9.92000 
H         10.15000       10.20000        9.82000 
  
C         12.81000       14.82000        9.13000 -0.302700
H         13.09000       14.09000        9.89000 0.00070
Cl        14.19000       16.00000        8.93000 0.30060
Cl        12.68000       14.05000        7.44000 0.30060
Cl        11.30000       15.74000        9.48000 0.30060
C          7.30000        5.65000       17.84000 -0.302700
H          6.86000        5.43000       16.87000 0.00070
Cl         6.14000        6.82000       18.64000 0.30060
Cl         7.50000        4.18000       18.82000 0.30060
Cl         8.86000        6.53000       17.76000 0.30060
C         12.94000        6.47000        7.79000 -0.302700
H         13.88000        5.94000        8.00000 0.00070
Cl        13.40000        8.16000        7.57000 0.30060
Cl        12.28000        5.78000        6.29000 0.30060
Cl        11.93000        6.38000        9.19000 0.30060
C         19.63000       13.68000       15.88000 -0.302700
H         20.47000       14.31000       15.59000 0.00070
Cl        19.65000       12.16000       14.98000 0.30060
Cl        19.46000       13.21000       17.58000 0.30060
Cl        18.16000       14.54000       15.39000 0.30060
C          4.86000       10.49000        8.51000 -0.302700
H          5.10000        9.43000        8.35000 0.00070
Cl         3.44000       10.71000        9.64000 0.30060
Cl         6.44000       11.06000        9.20000 0.30060
Cl         4.50000       11.38000        7.01000 0.30060
C          7.15000       21.01000       13.97000 -0.302700
H          7.45000       20.10000       13.43000 0.00070
Cl         6.40000       20.38000       15.46000 0.30060
Cl         8.60000       21.87000       14.49000 0.30060
Cl         6.15000       22.14000       13.10000 0.30060
C          4.07000        4.02000       13.68000 -0.302700
H          3.09000        3.78000       13.26000 0.00070
Cl         4.94000        2.51000       14.15000 0.30060
Cl         5.03000        5.03000       12.62000 0.30060
Cl         3.47000        5.09000       15.01000 0.30060
C          8.01000       14.87000        6.05000 -0.302700
H          8.26000       15.28000        7.04000 0.00070
Cl         9.27000       13.94000        5.36000 0.30060
Cl         6.58000       13.92000        6.49000 0.30060
Cl         7.46000       16.24000        4.99000 0.30060
C          9.29000        8.89000       21.33000 -0.302700
H          8.78000        7.97000       21.05000 0.00070
Cl         8.08000       10.21000       21.28000 0.30060
Cl        10.07000        8.58000       22.90000 0.30060
Cl        10.44000        9.21000       20.03000 0.30060
C          5.97000        9.53000       13.65000 -0.302700
H          5.37000        9.98000       14.45000 0.00070
Cl         6.92000        8.26000       14.46000 0.30060
Cl         4.76000        8.98000       12.42000 0.30060
Cl         7.04000       10.81000       12.97000 0.30060
C         12.66000        2.69000       10.92000 -0.302700
H         11.59000        2.91000       10.80000 0.00070
Cl        12.86000        1.17000       11.86000 0.30060
Cl        13.21000        2.44000        9.23000 0.30060
Cl        13.37000        4.11000       11.80000 0.30060
C         18.28000       14.88000       11.90000 -0.302700
H         17.96000       14.88000       12.95000 0.00070
Cl        19.25000       13.41000       11.61000 0.30060
Cl        16.87000       14.86000       10.86000 0.30060
Cl        19.42000       16.25000       11.58000 0.30060
C         17.94000       10.16000       11.95000 -0.302700
H         18.23000       11.13000       12.37000 0.00070
Cl        18.82000        8.85000       12.77000 0.30060
Cl        16.18000        9.81000       12.16000 0.30060
Cl        18.46000       10.18000       10.23000 0.30060
C         10.30000       19.57000        5.77000 -0.302700
H         10.65000       20.57000        6.05000 0.00070
Cl        10.32000       19.56000        3.97000 0.30060
Cl        11.39000       18.30000        6.29000 0.30060
Cl         8.72000       19.19000        6.51000 0.30060
C         13.92000        5.77000       18.95000 -0.302700
H         14.11000        6.36000       18.05000 0.00070
Cl        13.43000        4.14000       18.45000 0.30060
Cl        15.33000        5.87000       19.91000 0.30060
Cl        12.57000        6.49000       19.90000 0.30060
C         11.95000        7.84000       13.90000 -0.302700
H         12.00000        8.93000       13.91000 0.00070
Cl        12.46000        7.20000       15.45000 0.30060
Cl        10.26000        7.49000       13.59000 0.30060
Cl        13.00000        7.45000       12.49000 0.30060
C         13.42000       18.49000       12.25000 -0.302700
H         13.08000       18.18000       11.26000 0.00070
Cl        13.18000       20.23000       12.31000 0.30060
Cl        12.59000       17.56000       13.61000 0.30060
Cl        15.17000       18.02000       12.34000 0.30060
C         17.68000        7.78000       16.88000 -0.302700
H         17.64000        7.09000       17.73000 0.00070
Cl        17.18000        6.69000       15.54000 0.30060
Cl        16.40000        9.03000       17.19000 0.30060
Cl        19.39000        8.47000       16.74000 0.30060
C         14.48000       14.76000       15.45000 -0.302700
H         13.55000       15.03000       15.95000 0.00070
Cl        13.98000       14.41000       13.84000 0.30060
Cl        15.48000       16.22000       15.35000 0.30060
Cl        15.29000       13.39000       16.26000 0.30060
C         13.10000       17.33000       18.71000 -0.302700
H         13.66000       18.25000       18.51000 0.00070
Cl        12.03000       17.52000       20.15000 0.30060
Cl        12.09000       17.06000       17.32000 0.30060
Cl        14.42000       16.17000       19.14000 0.30060
C         13.21000       11.72000       20.12000 -0.302700
H         13.30000       10.85000       20.77000 0.00070
Cl        12.06000       12.89000       20.89000 0.30060
Cl        14.77000       12.47000       20.00000 0.30060
Cl        12.70000       11.07000       18.57000 0.30060
C         13.77000       10.00000        2.39000 -0.302700
H         13.41000       11.02000        2.53000 0.00070
Cl        13.48000        9.56000        0.65000 0.30060
Cl        15.56000       10.20000        2.77000 0.30060
Cl        12.94000        8.79000        3.34000 0.30060
C          8.38000       17.57000       12.80000 -0.302700
H          8.74000       16.54000       12.72000 0.00070
Cl         9.44000       18.43000       14.00000 0.30060
Cl         8.51000       18.20000       11.11000 0.30060
Cl         6.62000       17.57000       13.05000 0.30060
C         13.08000       20.86000       16.14000 -0.302700
H         12.48000       20.23000       15.48000 0.00070
Cl        14.46000       19.75000       16.27000 0.30060
Cl        13.50000       22.38000       15.38000 0.30060
Cl        12.11000       21.05000       17.65000 0.30060
C          7.37000        4.91000        6.36000 -0.302700
H          7.56000        5.63000        7.16000 0.00070
Cl         6.47000        3.62000        7.27000 0.30060
Cl         6.45000        5.61000        5.08000 0.30060
Cl         9.05000        4.33000        5.93000 0.30060
C          8.18000       12.97000       17.35000 -0.302700
H          8.79000       13.74000       17.83000 0.00070
Cl         7.26000       12.47000       18.83000 0.30060
Cl         7.18000       13.76000       16.05000 0.30060
Cl         9.27000       11.65000       16.71000 0.30060
C          4.09000       12.34000       16.22000 -0.302700
H          5.13000       12.67000       16.24000 0.00070
Cl         3.99000       10.64000       16.64000 0.30060
Cl         3.08000       13.36000       17.27000 0.30060
Cl         3.42000       12.56000       14.56000 0.30060
C          6.81000       16.63000       19.19000 -0.302700
H          6.53000       17.43000       19.88000 0.00070
Cl         7.65000       17.44000       17.90000 0.30060
Cl         7.93000       15.60000       20.17000 0.30060
Cl         5.39000       15.75000       18.67000 0.30060
C         10.52000        2.90000       14.63000 -0.302700
H         11.06000        3.53000       13.92000 0.00070
Cl         9.60000        1.67000       13.72000 0.30060
Cl        11.69000        2.36000       15.88000 0.30060
Cl         9.25000        4.00000       15.34000 0.30060
C          5.62000       15.06000       10.64000 -0.302700
H          5.47000       16.08000       10.29000 0.00070
Cl         5.04000       14.84000       12.28000 0.30060
Cl         4.61000       14.10000        9.55000 0.30060
Cl         7.33000       14.53000       10.65000 0.30060
C         17.47000        6.13000        8.49000 -0.302700
H         18.54000        6.13000        8.25000 0.00070
Cl        17.55000        6.00000       10.29000 0.30060
Cl        16.60000        7.59000        7.95000 0.30060
Cl        16.67000        4.72000        7.77000 0.30060
C         16.34000       13.05000        7.48000 -0.302700
H         15.71000       13.87000        7.80000 0.00070
Cl        15.92000       12.54000        5.85000 0.30060
Cl        18.05000       13.62000        7.67000 0.30060
Cl        15.90000       11.82000        8.70000 0.30060
C         18.44000        8.28000        4.95000 -0.302700
H         17.56000        8.35000        5.60000 0.00070
Cl        18.09000        7.66000        3.35000 0.30060
Cl        19.03000        9.95000        4.92000 0.30060
Cl        19.79000        7.45000        5.73000 0.30060
C          7.47000        6.96000        9.85000 -0.302700
H          7.29000        7.40000       10.83000 0.00070
Cl         8.30000        8.14000        8.77000 0.30060
Cl         8.55000        5.53000       10.07000 0.30060
Cl         5.87000        6.61000        9.15000 0.30060

%Mem = 2GB
%nproc=16
# b3lyp/6-31g* td 

Butadiene tddft 

0 1
C         10.59000       10.95000       11.71000 
H          9.68000       10.49000       12.08000 
C         11.41000       11.63000       12.71000 
H         12.25000       12.21000       12.32000 
C         11.20000       11.48000       14.05000 
H         10.46000       10.75000       14.36000 
H         11.78000       12.00000       14.81000 
C         10.87000       10.78000       10.40000 
H         11.77000       11.18000        9.92000 
H         10.15000       10.20000        9.82000 
  
C         12.81000       14.82000        9.13000 -0.302700
H         13.09000       14.09000        9.89000 0.00070
Cl        14.19000       16.00000        8.93000 0.30060
Cl        12.68000       14.05000        7.44000 0.30060
Cl        11.30000       15.74000        9.48000 0.30060
C          7.30000        5.65000       17.84000 -0.302700
H          6.86000        5.43000       16.87000 0.00070
Cl         6.14000        6.82000       18.64000 0.30060
Cl         7.50000        4.18000       18.82000 0.30060
Cl         8.86000        6.53000       17.76000 0.30060
C         12.94000        6.47000        7.79000 -0.302700
H         13.88000        5.94000        8.00000 0.00070
Cl        13.40000        8.16000        7.57000 0.30060
Cl        12.28000        5.78000        6.29000 0.30060
Cl        11.93000        6.38000        9.19000 0.30060
C         19.63000       13.68000       15.88000 -0.302700
H         20.47000       14.31000       15.59000 0.00070
Cl        19.65000       12.16000       14.98000 0.30060
Cl        19.46000       13.21000       17.58000 0.30060
Cl        18.16000       14.54000       15.39000 0.30060
C          4.86000       10.49000        8.51000 -0.302700
H          5.10000        9.43000        8.35000 0.00070
Cl         3.44000       10.71000        9.64000 0.30060
Cl         6.44000       11.06000        9.20000 0.30060
Cl         4.50000       11.38000        7.01000 0.30060
C          7.15000       21.01000       13.97000 -0.302700
H          7.45000       20.10000       13.43000 0.00070
Cl         6.40000       20.38000       15.46000 0.30060
Cl         8.60000       21.87000       14.49000 0.30060
Cl         6.15000       22.14000       13.10000 0.30060
C          4.07000        4.02000       13.68000 -0.302700
H          3.09000        3.78000       13.26000 0.00070
Cl         4.94000        2.51000       14.15000 0.30060
Cl         5.03000        5.03000       12.62000 0.30060
Cl         3.47000        5.09000       15.01000 0.30060
C          8.01000       14.87000        6.05000 -0.302700
H          8.26000       15.28000        7.04000 0.00070
Cl         9.27000       13.94000        5.36000 0.30060
Cl         6.58000       13.92000        6.49000 0.30060
Cl         7.46000       16.24000        4.99000 0.30060
C          9.29000        8.89000       21.33000 -0.302700
H          8.78000        7.97000       21.05000 0.00070
Cl         8.08000       10.21000       21.28000 0.30060
Cl        10.07000        8.58000       22.90000 0.30060
Cl        10.44000        9.21000       20.03000 0.30060
C          5.97000        9.53000       13.65000 -0.302700
H          5.37000        9.98000       14.45000 0.00070
Cl         6.92000        8.26000       14.46000 0.30060
Cl         4.76000        8.98000       12.42000 0.30060
Cl         7.04000       10.81000       12.97000 0.30060
C         12.66000        2.69000       10.92000 -0.302700
H         11.59000        2.91000       10.80000 0.00070
Cl        12.86000        1.17000       11.86000 0.30060
Cl        13.21000        2.44000        9.23000 0.30060
Cl        13.37000        4.11000       11.80000 0.30060
C         18.28000       14.88000       11.90000 -0.302700
H         17.96000       14.88000       12.95000 0.00070
Cl        19.25000       13.41000       11.61000 0.30060
Cl        16.87000       14.86000       10.86000 0.30060
Cl        19.42000       16.25000       11.58000 0.30060
C         17.94000       10.16000       11.95000 -0.302700
H         18.23000       11.13000       12.37000 0.00070
Cl        18.82000        8.85000       12.77000 0.30060
Cl        16.18000        9.81000       12.16000 0.30060
Cl        18.46000       10.18000       10.23000 0.30060
C         10.30000       19.57000        5.77000 -0.302700
H         10.65000       20.57000        6.05000 0.00070
Cl        10.32000       19.56000        3.97000 0.30060
Cl        11.39000       18.30000        6.29000 0.30060
Cl         8.72000       19.19000        6.51000 0.30060
C         13.92000        5.77000       18.95000 -0.302700
H         14.11000        6.36000       18.05000 0.00070
Cl        13.43000        4.14000       18.45000 0.30060
Cl        15.33000        5.87000       19.91000 0.30060
Cl        12.57000        6.49000       19.90000 0.30060
C         11.95000        7.84000       13.90000 -0.302700
H         12.00000        8.93000       13.91000 0.00070
Cl        12.46000        7.20000       15.45000 0.30060
Cl        10.26000        7.49000       13.59000 0.30060
Cl        13.00000        7.45000       12.49000 0.30060
C         13.42000       18.49000       12.25000 -0.302700
H         13.08000       18.18000       11.26000 0.00070
Cl        13.18000       20.23000       12.31000 0.30060
Cl        12.59000       17.56000       13.61000 0.30060
Cl        15.17000       18.02000       12.34000 0.30060
C         17.68000        7.78000       16.88000 -0.302700
H         17.64000        7.09000       17.73000 0.00070
Cl        17.18000        6.69000       15.54000 0.30060
Cl        16.40000        9.03000       17.19000 0.30060
Cl        19.39000        8.47000       16.74000 0.30060
C         14.48000       14.76000       15.45000 -0.302700
H         13.55000       15.03000       15.95000 0.00070
Cl        13.98000       14.41000       13.84000 0.30060
Cl        15.48000       16.22000       15.35000 0.30060
Cl        15.29000       13.39000       16.26000 0.30060
C         13.10000       17.33000       18.71000 -0.302700
H         13.66000       18.25000       18.51000 0.00070
Cl        12.03000       17.52000       20.15000 0.30060
Cl        12.09000       17.06000       17.32000 0.30060
Cl        14.42000       16.17000       19.14000 0.30060
C         13.21000       11.72000       20.12000 -0.302700
H         13.30000       10.85000       20.77000 0.00070
Cl        12.06000       12.89000       20.89000 0.30060
Cl        14.77000       12.47000       20.00000 0.30060
Cl        12.70000       11.07000       18.57000 0.30060
C         13.77000       10.00000        2.39000 -0.302700
H         13.41000       11.02000        2.53000 0.00070
Cl        13.48000        9.56000        0.65000 0.30060
Cl        15.56000       10.20000        2.77000 0.30060
Cl        12.94000        8.79000        3.34000 0.30060
C          8.38000       17.57000       12.80000 -0.302700
H          8.74000       16.54000       12.72000 0.00070
Cl         9.44000       18.43000       14.00000 0.30060
Cl         8.51000       18.20000       11.11000 0.30060
Cl         6.62000       17.57000       13.05000 0.30060
C         13.08000       20.86000       16.14000 -0.302700
H         12.48000       20.23000       15.48000 0.00070
Cl        14.46000       19.75000       16.27000 0.30060
Cl        13.50000       22.38000       15.38000 0.30060
Cl        12.11000       21.05000       17.65000 0.30060
C          7.37000        4.91000        6.36000 -0.302700
H          7.56000        5.63000        7.16000 0.00070
Cl         6.47000        3.62000        7.27000 0.30060
Cl         6.45000        5.61000        5.08000 0.30060
Cl         9.05000        4.33000        5.93000 0.30060
C          8.18000       12.97000       17.35000 -0.302700
H          8.79000       13.74000       17.83000 0.00070
Cl         7.26000       12.47000       18.83000 0.30060
Cl         7.18000       13.76000       16.05000 0.30060
Cl         9.27000       11.65000       16.71000 0.30060
C          4.09000       12.34000       16.22000 -0.302700
H          5.13000       12.67000       16.24000 0.00070
Cl         3.99000       10.64000       16.64000 0.30060
Cl         3.08000       13.36000       17.27000 0.30060
Cl         3.42000       12.56000       14.56000 0.30060
C          6.81000       16.63000       19.19000 -0.302700
H          6.53000       17.43000       19.88000 0.00070
Cl         7.65000       17.44000       17.90000 0.30060
Cl         7.93000       15.60000       20.17000 0.30060
Cl         5.39000       15.75000       18.67000 0.30060
C         10.52000        2.90000       14.63000 -0.302700
H         11.06000        3.53000       13.92000 0.00070
Cl         9.60000        1.67000       13.72000 0.30060
Cl        11.69000        2.36000       15.88000 0.30060
Cl         9.25000        4.00000       15.34000 0.30060
C          5.62000       15.06000       10.64000 -0.302700
H          5.47000       16.08000       10.29000 0.00070
Cl         5.04000       14.84000       12.28000 0.30060
Cl         4.61000       14.10000        9.55000 0.30060
Cl         7.33000       14.53000       10.65000 0.30060
C         17.47000        6.13000        8.49000 -0.302700
H         18.54000        6.13000        8.25000 0.00070
Cl        17.55000        6.00000       10.29000 0.30060
Cl        16.60000        7.59000        7.95000 0.30060
Cl        16.67000        4.72000        7.77000 0.30060
C         16.34000       13.05000        7.48000 -0.302700
H         15.71000       13.87000        7.80000 0.00070
Cl        15.92000       12.54000        5.85000 0.30060
Cl        18.05000       13.62000        7.67000 0.30060
Cl        15.90000       11.82000        8.70000 0.30060
C         18.44000        8.28000        4.95000 -0.302700
H         17.56000        8.35000        5.60000 0.00070
Cl        18.09000        7.66000        3.35000 0.30060
Cl        19.03000        9.95000        4.92000 0.30060
Cl        19.79000        7.45000        5.73000 0.30060
C          7.47000        6.96000        9.85000 -0.302700
H          7.29000        7.40000       10.83000 0.00070
Cl         8.30000        8.14000        8.77000 0.30060
Cl         8.55000        5.53000       10.07000 0.30060
Cl         5.87000        6.61000        9.15000 0.30060

