%Mem = 2GB
%nproc=16
# b3lyp/6-31g* td 

Butadiene tddft 

0 1
C         13.50000       12.25000       11.97000 
H         13.14000       11.24000       12.17000 
C         12.80000       13.46000       12.15000 
H         13.46000       14.32000       11.99000 
C         11.51000       13.55000       12.17000 
H         10.85000       12.69000       12.10000 
H         10.99000       14.50000       12.18000 
C         14.79000       12.24000       11.62000 
H         15.21000       13.17000       11.26000 
H         15.44000       11.36000       11.62000 
  
C         20.38000       13.41000       16.30000 -0.302700
H         20.64000       12.67000       15.54000 0.00070
Cl        18.75000       13.96000       16.04000 0.30060
Cl        20.37000       12.52000       17.84000 0.30060
Cl        21.58000       14.68000       16.04000 0.30060
C          8.06000       16.36000       14.96000 -0.302700
H          8.79000       16.25000       15.76000 0.00070
Cl         8.52000       15.41000       13.47000 0.30060
Cl         6.37000       15.88000       15.32000 0.30060
Cl         7.93000       18.16000       14.72000 0.30060
C          5.83000       16.34000        6.21000 -0.302700
H          5.34000       15.84000        5.37000 0.00070
Cl         4.56000       17.40000        6.84000 0.30060
Cl         6.38000       15.19000        7.58000 0.30060
Cl         7.22000       17.35000        5.58000 0.30060
C         18.86000       18.47000        9.39000 -0.302700
H         19.60000       17.72000        9.66000 0.00070
Cl        19.22000       18.99000        7.75000 0.30060
Cl        17.23000       17.71000        9.49000 0.30060
Cl        19.04000       19.94000       10.42000 0.30060
C         16.42000       16.72000       17.07000 -0.302700
H         16.58000       15.64000       17.12000 0.00070
Cl        16.28000       17.32000       15.35000 0.30060
Cl        15.03000       17.06000       18.12000 0.30060
Cl        17.84000       17.44000       17.79000 0.30060
C         21.51000        8.94000       14.73000 -0.302700
H         21.32000        7.99000       15.23000 0.00070
Cl        22.92000        9.61000       15.61000 0.30060
Cl        21.94000        8.63000       13.01000 0.30060
Cl        20.02000        9.92000       14.97000 0.30060
C         11.33000       10.19000       20.55000 -0.302700
H         10.53000        9.49000       20.78000 0.00070
Cl        12.34000       10.58000       22.03000 0.30060
Cl        12.40000        9.45000       19.32000 0.30060
Cl        10.77000       11.76000       19.88000 0.30060
C          6.78000        8.11000        4.42000 -0.302700
H          5.76000        8.18000        4.82000 0.00070
Cl         7.99000        8.57000        5.66000 0.30060
Cl         6.99000        6.49000        3.78000 0.30060
Cl         6.97000        9.32000        3.15000 0.30060
C         16.97000        7.52000        6.44000 -0.302700
H         17.51000        7.50000        5.49000 0.00070
Cl        16.44000        9.22000        6.60000 0.30060
Cl        15.60000        6.38000        6.43000 0.30060
Cl        18.09000        7.12000        7.74000 0.30060
C         13.21000        7.31000       15.06000 -0.302700
H         13.10000        8.30000       14.60000 0.00070
Cl        14.90000        6.94000       15.52000 0.30060
Cl        12.17000        7.33000       16.49000 0.30060
Cl        12.74000        6.04000       13.91000 0.30060
C         11.53000       16.37000       16.70000 -0.302700
H         12.42000       16.18000       17.30000 0.00070
Cl        10.69000       17.62000       17.65000 0.30060
Cl        11.80000       16.99000       15.06000 0.30060
Cl        10.80000       14.76000       16.75000 0.30060
C         13.97000       12.04000       16.36000 -0.302700
H         13.94000       11.66000       17.38000 0.00070
Cl        14.40000       13.75000       16.36000 0.30060
Cl        15.36000       11.24000       15.76000 0.30060
Cl        12.34000       11.50000       15.71000 0.30060
C         14.79000       19.47000       11.64000 -0.302700
H         15.83000       19.14000       11.70000 0.00070
Cl        14.19000       19.84000       13.30000 0.30060
Cl        14.67000       20.91000       10.60000 0.30060
Cl        13.77000       18.20000       11.12000 0.30060
C         14.09000       10.05000        2.75000 -0.302700
H         14.09000       10.75000        3.60000 0.00070
Cl        13.67000        8.34000        3.24000 0.30060
Cl        13.04000       10.79000        1.52000 0.30060
Cl        15.80000        9.97000        2.20000 0.30060
C         16.94000       16.99000        3.10000 -0.302700
H         16.32000       16.94000        2.20000 0.00070
Cl        18.52000       16.22000        2.97000 0.30060
Cl        17.30000       18.68000        3.54000 0.30060
Cl        15.99000       16.13000        4.42000 0.30060
C          7.34000        7.49000       12.88000 -0.302700
H          7.25000        8.53000       12.55000 0.00070
Cl         7.55000        7.41000       14.65000 0.30060
Cl         5.97000        6.51000       12.44000 0.30060
Cl         8.72000        6.75000       12.14000 0.30060
C          9.44000        3.19000       13.26000 -0.302700
H          8.65000        3.93000       13.36000 0.00070
Cl        10.21000        3.05000       14.85000 0.30060
Cl         8.64000        1.72000       12.58000 0.30060
Cl        10.67000        3.79000       12.08000 0.30060
C         18.57000        8.01000       18.47000 -0.302700
H         18.58000        8.79000       19.24000 0.00070
Cl        20.25000        8.02000       17.77000 0.30060
Cl        18.33000        6.38000       19.15000 0.30060
Cl        17.39000        8.37000       17.17000 0.30060
C         21.50000       19.19000       14.78000 -0.302700
H         21.27000       19.93000       15.55000 0.00070
Cl        20.23000       18.01000       14.54000 0.30060
Cl        21.87000       19.97000       13.20000 0.30060
Cl        22.94000       18.37000       15.39000 0.30060
C          6.38000       19.07000       10.68000 -0.302700
H          7.40000       19.44000       10.80000 0.00070
Cl         5.64000       20.02000        9.34000 0.30060
Cl         6.40000       17.36000       10.10000 0.30060
Cl         5.46000       19.43000       12.13000 0.30060
C         14.21000       19.84000        5.41000 -0.302700
H         14.92000       20.45000        4.85000 0.00070
Cl        15.17000       18.78000        6.53000 0.30060
Cl        13.04000       20.87000        6.34000 0.30060
Cl        13.41000       18.63000        4.31000 0.30060
C         10.31000       17.08000        8.60000 -0.302700
H         10.09000       17.19000        9.66000 0.00070
Cl        12.11000       17.02000        8.39000 0.30060
Cl         9.66000       15.55000        7.89000 0.30060
Cl         9.66000       18.53000        7.71000 0.30060
C          9.50000       13.16000        3.33000 -0.302700
H          9.09000       13.52000        2.38000 0.00070
Cl        11.14000       13.80000        3.49000 0.30060
Cl         8.48000       13.79000        4.61000 0.30060
Cl         9.57000       11.35000        3.10000 0.30060
C         20.15000       14.68000       12.79000 -0.302700
H         20.50000       15.22000       13.67000 0.00070
Cl        21.21000       15.36000       11.58000 0.30060
Cl        20.19000       12.87000       12.97000 0.30060
Cl        18.48000       15.40000       12.50000 0.30060
C          6.76000       11.25000       16.63000 -0.302700
H          6.06000       11.34000       17.47000 0.00070
Cl         8.03000       10.04000       17.08000 0.30060
Cl         5.89000       10.47000       15.29000 0.30060
Cl         7.49000       12.80000       16.22000 0.30060
C         10.85000       19.73000       11.99000 -0.302700
H         11.88000       19.41000       12.13000 0.00070
Cl        10.46000       20.89000       13.26000 0.30060
Cl        10.69000       20.73000       10.49000 0.30060
Cl         9.78000       18.26000       11.88000 0.30060
C          1.80000       14.89000       12.46000 -0.302700
H          1.65000       15.42000       11.51000 0.00070
Cl         1.64000       16.07000       13.77000 0.30060
Cl         0.61000       13.50000       12.46000 0.30060
Cl         3.39000       14.20000       12.54000 0.30060
C         10.88000        6.20000        7.39000 -0.302700
H         11.83000        6.58000        7.02000 0.00070
Cl         9.91000        7.43000        8.38000 0.30060
Cl         9.95000        5.73000        5.93000 0.30060
Cl        11.18000        4.78000        8.43000 0.30060
C         14.01000       20.71000       19.41000 -0.302700
H         13.63000       20.25000       18.50000 0.00070
Cl        12.73000       21.83000       20.00000 0.30060
Cl        14.17000       19.51000       20.74000 0.30060
Cl        15.48000       21.63000       19.02000 0.30060
C          6.91000       11.96000       12.02000 -0.302700
H          6.89000       12.48000       12.98000 0.00070
Cl         8.51000       11.17000       11.76000 0.30060
Cl         5.79000       10.57000       11.91000 0.30060
Cl         6.68000       13.17000       10.82000 0.30060
C          6.07000       14.65000       19.96000 -0.302700
H          6.50000       15.62000       20.20000 0.00070
Cl         4.92000       15.15000       18.66000 0.30060
Cl         7.34000       13.53000       19.45000 0.30060
Cl         5.23000       14.26000       21.49000 0.30060
C         16.39000       12.64000       19.68000 -0.302700
H         16.51000       12.96000       18.64000 0.00070
Cl        17.61000       11.29000       19.83000 0.30060
Cl        16.86000       13.96000       20.71000 0.30060
Cl        14.70000       12.06000       19.88000 0.30060
C         18.46000        5.86000       13.24000 -0.302700
H         17.50000        6.21000       13.63000 0.00070
Cl        18.96000        7.26000       12.25000 0.30060
Cl        19.48000        5.49000       14.67000 0.30060
Cl        18.17000        4.48000       12.12000 0.30060
C         15.04000        7.76000       10.18000 -0.302700
H         15.87000        8.19000        9.62000 0.00070
Cl        15.35000        8.41000       11.85000 0.30060
Cl        13.45000        8.20000        9.57000 0.30060
Cl        15.32000        6.00000       10.25000 0.30060
C         17.89000       12.84000        9.11000 -0.302700
H         17.40000       13.57000        9.76000 0.00070
Cl        18.43000       11.38000       10.05000 0.30060
Cl        16.75000       12.36000        7.89000 0.30060
Cl        19.24000       13.81000        8.40000 0.30060
C         11.96000       11.85000        7.00000 -0.302700
H         11.70000       12.69000        6.36000 0.00070
Cl        13.45000       11.16000        6.29000 0.30060
Cl        12.42000       12.59000        8.58000 0.30060
Cl        10.63000       10.69000        7.03000 0.30060

%Mem = 2GB
%nproc=16
# b3lyp/6-31g* td 

Butadiene tddft 

0 1
C         13.50000       12.25000       11.97000 
H         13.14000       11.24000       12.17000 
C         12.80000       13.46000       12.15000 
H         13.46000       14.32000       11.99000 
C         11.51000       13.55000       12.17000 
H         10.85000       12.69000       12.10000 
H         10.99000       14.50000       12.18000 
C         14.79000       12.24000       11.62000 
H         15.21000       13.17000       11.26000 
H         15.44000       11.36000       11.62000 
  
C         20.38000       13.41000       16.30000 -0.302700
H         20.64000       12.67000       15.54000 0.00070
Cl        18.75000       13.96000       16.04000 0.30060
Cl        20.37000       12.52000       17.84000 0.30060
Cl        21.58000       14.68000       16.04000 0.30060
C          8.06000       16.36000       14.96000 -0.302700
H          8.79000       16.25000       15.76000 0.00070
Cl         8.52000       15.41000       13.47000 0.30060
Cl         6.37000       15.88000       15.32000 0.30060
Cl         7.93000       18.16000       14.72000 0.30060
C          5.83000       16.34000        6.21000 -0.302700
H          5.34000       15.84000        5.37000 0.00070
Cl         4.56000       17.40000        6.84000 0.30060
Cl         6.38000       15.19000        7.58000 0.30060
Cl         7.22000       17.35000        5.58000 0.30060
C         18.86000       18.47000        9.39000 -0.302700
H         19.60000       17.72000        9.66000 0.00070
Cl        19.22000       18.99000        7.75000 0.30060
Cl        17.23000       17.71000        9.49000 0.30060
Cl        19.04000       19.94000       10.42000 0.30060
C         16.42000       16.72000       17.07000 -0.302700
H         16.58000       15.64000       17.12000 0.00070
Cl        16.28000       17.32000       15.35000 0.30060
Cl        15.03000       17.06000       18.12000 0.30060
Cl        17.84000       17.44000       17.79000 0.30060
C         21.51000        8.94000       14.73000 -0.302700
H         21.32000        7.99000       15.23000 0.00070
Cl        22.92000        9.61000       15.61000 0.30060
Cl        21.94000        8.63000       13.01000 0.30060
Cl        20.02000        9.92000       14.97000 0.30060
C         11.33000       10.19000       20.55000 -0.302700
H         10.53000        9.49000       20.78000 0.00070
Cl        12.34000       10.58000       22.03000 0.30060
Cl        12.40000        9.45000       19.32000 0.30060
Cl        10.77000       11.76000       19.88000 0.30060
C          6.78000        8.11000        4.42000 -0.302700
H          5.76000        8.18000        4.82000 0.00070
Cl         7.99000        8.57000        5.66000 0.30060
Cl         6.99000        6.49000        3.78000 0.30060
Cl         6.97000        9.32000        3.15000 0.30060
C         16.97000        7.52000        6.44000 -0.302700
H         17.51000        7.50000        5.49000 0.00070
Cl        16.44000        9.22000        6.60000 0.30060
Cl        15.60000        6.38000        6.43000 0.30060
Cl        18.09000        7.12000        7.74000 0.30060
C         13.21000        7.31000       15.06000 -0.302700
H         13.10000        8.30000       14.60000 0.00070
Cl        14.90000        6.94000       15.52000 0.30060
Cl        12.17000        7.33000       16.49000 0.30060
Cl        12.74000        6.04000       13.91000 0.30060
C         11.53000       16.37000       16.70000 -0.302700
H         12.42000       16.18000       17.30000 0.00070
Cl        10.69000       17.62000       17.65000 0.30060
Cl        11.80000       16.99000       15.06000 0.30060
Cl        10.80000       14.76000       16.75000 0.30060
C         13.97000       12.04000       16.36000 -0.302700
H         13.94000       11.66000       17.38000 0.00070
Cl        14.40000       13.75000       16.36000 0.30060
Cl        15.36000       11.24000       15.76000 0.30060
Cl        12.34000       11.50000       15.71000 0.30060
C         14.79000       19.47000       11.64000 -0.302700
H         15.83000       19.14000       11.70000 0.00070
Cl        14.19000       19.84000       13.30000 0.30060
Cl        14.67000       20.91000       10.60000 0.30060
Cl        13.77000       18.20000       11.12000 0.30060
C         14.09000       10.05000        2.75000 -0.302700
H         14.09000       10.75000        3.60000 0.00070
Cl        13.67000        8.34000        3.24000 0.30060
Cl        13.04000       10.79000        1.52000 0.30060
Cl        15.80000        9.97000        2.20000 0.30060
C         16.94000       16.99000        3.10000 -0.302700
H         16.32000       16.94000        2.20000 0.00070
Cl        18.52000       16.22000        2.97000 0.30060
Cl        17.30000       18.68000        3.54000 0.30060
Cl        15.99000       16.13000        4.42000 0.30060
C          7.34000        7.49000       12.88000 -0.302700
H          7.25000        8.53000       12.55000 0.00070
Cl         7.55000        7.41000       14.65000 0.30060
Cl         5.97000        6.51000       12.44000 0.30060
Cl         8.72000        6.75000       12.14000 0.30060
C          9.44000        3.19000       13.26000 -0.302700
H          8.65000        3.93000       13.36000 0.00070
Cl        10.21000        3.05000       14.85000 0.30060
Cl         8.64000        1.72000       12.58000 0.30060
Cl        10.67000        3.79000       12.08000 0.30060
C         18.57000        8.01000       18.47000 -0.302700
H         18.58000        8.79000       19.24000 0.00070
Cl        20.25000        8.02000       17.77000 0.30060
Cl        18.33000        6.38000       19.15000 0.30060
Cl        17.39000        8.37000       17.17000 0.30060
C         21.50000       19.19000       14.78000 -0.302700
H         21.27000       19.93000       15.55000 0.00070
Cl        20.23000       18.01000       14.54000 0.30060
Cl        21.87000       19.97000       13.20000 0.30060
Cl        22.94000       18.37000       15.39000 0.30060
C          6.38000       19.07000       10.68000 -0.302700
H          7.40000       19.44000       10.80000 0.00070
Cl         5.64000       20.02000        9.34000 0.30060
Cl         6.40000       17.36000       10.10000 0.30060
Cl         5.46000       19.43000       12.13000 0.30060
C         14.21000       19.84000        5.41000 -0.302700
H         14.92000       20.45000        4.85000 0.00070
Cl        15.17000       18.78000        6.53000 0.30060
Cl        13.04000       20.87000        6.34000 0.30060
Cl        13.41000       18.63000        4.31000 0.30060
C         10.31000       17.08000        8.60000 -0.302700
H         10.09000       17.19000        9.66000 0.00070
Cl        12.11000       17.02000        8.39000 0.30060
Cl         9.66000       15.55000        7.89000 0.30060
Cl         9.66000       18.53000        7.71000 0.30060
C          9.50000       13.16000        3.33000 -0.302700
H          9.09000       13.52000        2.38000 0.00070
Cl        11.14000       13.80000        3.49000 0.30060
Cl         8.48000       13.79000        4.61000 0.30060
Cl         9.57000       11.35000        3.10000 0.30060
C         20.15000       14.68000       12.79000 -0.302700
H         20.50000       15.22000       13.67000 0.00070
Cl        21.21000       15.36000       11.58000 0.30060
Cl        20.19000       12.87000       12.97000 0.30060
Cl        18.48000       15.40000       12.50000 0.30060
C          6.76000       11.25000       16.63000 -0.302700
H          6.06000       11.34000       17.47000 0.00070
Cl         8.03000       10.04000       17.08000 0.30060
Cl         5.89000       10.47000       15.29000 0.30060
Cl         7.49000       12.80000       16.22000 0.30060
C         10.85000       19.73000       11.99000 -0.302700
H         11.88000       19.41000       12.13000 0.00070
Cl        10.46000       20.89000       13.26000 0.30060
Cl        10.69000       20.73000       10.49000 0.30060
Cl         9.78000       18.26000       11.88000 0.30060
C          1.80000       14.89000       12.46000 -0.302700
H          1.65000       15.42000       11.51000 0.00070
Cl         1.64000       16.07000       13.77000 0.30060
Cl         0.61000       13.50000       12.46000 0.30060
Cl         3.39000       14.20000       12.54000 0.30060
C         10.88000        6.20000        7.39000 -0.302700
H         11.83000        6.58000        7.02000 0.00070
Cl         9.91000        7.43000        8.38000 0.30060
Cl         9.95000        5.73000        5.93000 0.30060
Cl        11.18000        4.78000        8.43000 0.30060
C         14.01000       20.71000       19.41000 -0.302700
H         13.63000       20.25000       18.50000 0.00070
Cl        12.73000       21.83000       20.00000 0.30060
Cl        14.17000       19.51000       20.74000 0.30060
Cl        15.48000       21.63000       19.02000 0.30060
C          6.91000       11.96000       12.02000 -0.302700
H          6.89000       12.48000       12.98000 0.00070
Cl         8.51000       11.17000       11.76000 0.30060
Cl         5.79000       10.57000       11.91000 0.30060
Cl         6.68000       13.17000       10.82000 0.30060
C          6.07000       14.65000       19.96000 -0.302700
H          6.50000       15.62000       20.20000 0.00070
Cl         4.92000       15.15000       18.66000 0.30060
Cl         7.34000       13.53000       19.45000 0.30060
Cl         5.23000       14.26000       21.49000 0.30060
C         16.39000       12.64000       19.68000 -0.302700
H         16.51000       12.96000       18.64000 0.00070
Cl        17.61000       11.29000       19.83000 0.30060
Cl        16.86000       13.96000       20.71000 0.30060
Cl        14.70000       12.06000       19.88000 0.30060
C         18.46000        5.86000       13.24000 -0.302700
H         17.50000        6.21000       13.63000 0.00070
Cl        18.96000        7.26000       12.25000 0.30060
Cl        19.48000        5.49000       14.67000 0.30060
Cl        18.17000        4.48000       12.12000 0.30060
C         15.04000        7.76000       10.18000 -0.302700
H         15.87000        8.19000        9.62000 0.00070
Cl        15.35000        8.41000       11.85000 0.30060
Cl        13.45000        8.20000        9.57000 0.30060
Cl        15.32000        6.00000       10.25000 0.30060
C         17.89000       12.84000        9.11000 -0.302700
H         17.40000       13.57000        9.76000 0.00070
Cl        18.43000       11.38000       10.05000 0.30060
Cl        16.75000       12.36000        7.89000 0.30060
Cl        19.24000       13.81000        8.40000 0.30060
C         11.96000       11.85000        7.00000 -0.302700
H         11.70000       12.69000        6.36000 0.00070
Cl        13.45000       11.16000        6.29000 0.30060
Cl        12.42000       12.59000        8.58000 0.30060
Cl        10.63000       10.69000        7.03000 0.30060

