%Mem = 2GB
%nproc=16
# b3lyp/6-31g* td 

Butadiene tddft 

0 1
C         12.23000       13.09000       11.41000 
H         12.52000       13.30000       12.44000 
C         11.50000       11.92000       11.05000 
H         11.13000       11.85000       10.03000 
C         11.02000       11.07000       11.96000 
H         11.22000       11.09000       13.03000 
H         10.54000       10.18000       11.56000 
C         12.44000       14.10000       10.53000 
H         12.22000       13.89000        9.48000 
H         12.88000       15.06000       10.79000 
  
C          4.03000       19.38000        9.28000 -0.302700
H          3.83000       20.44000        9.46000 0.00070
Cl         4.54000       19.01000        7.62000 0.30060
Cl         5.39000       19.01000       10.40000 0.30060
Cl         2.64000       18.38000        9.74000 0.30060
C          4.05000        8.47000        5.27000 -0.302700
H          3.44000        7.96000        4.52000 0.00070
Cl         5.74000        7.93000        5.11000 0.30060
Cl         3.86000       10.24000        4.97000 0.30060
Cl         3.33000        8.07000        6.88000 0.30060
C          9.36000        8.05000        2.35000 -0.302700
H          8.61000        8.79000        2.62000 0.00070
Cl         9.13000        7.36000        0.70000 0.30060
Cl        10.92000        8.84000        2.48000 0.30060
Cl         9.37000        6.77000        3.57000 0.30060
C         12.07000        3.55000       10.96000 -0.302700
H         11.77000        3.02000       11.87000 0.00070
Cl        10.66000        3.41000       10.03000 0.30060
Cl        12.59000        5.14000       11.38000 0.30060
Cl        13.49000        2.75000       10.25000 0.30060
C          8.85000        7.31000       12.06000 -0.302700
H          9.43000        7.52000       12.97000 0.00070
Cl         7.72000        5.95000       12.35000 0.30060
Cl         8.08000        8.85000       11.59000 0.30060
Cl        10.04000        6.81000       10.86000 0.30060
C         17.22000       10.54000       17.97000 -0.302700
H         16.84000       10.12000       18.90000 0.00070
Cl        15.90000       10.56000       16.82000 0.30060
Cl        17.82000       12.10000       18.54000 0.30060
Cl        18.54000        9.40000       17.44000 0.30060
C          8.40000        3.53000        6.20000 -0.302700
H          8.81000        3.22000        7.16000 0.00070
Cl         7.71000        5.14000        6.38000 0.30060
Cl         9.63000        3.47000        4.87000 0.30060
Cl         7.13000        2.22000        6.01000 0.30060
C         12.71000       10.32000       22.06000 -0.302700
H         13.11000       10.94000       22.86000 0.00070
Cl        13.17000        8.67000       22.39000 0.30060
Cl        10.94000       10.58000       22.11000 0.30060
Cl        13.32000       10.58000       20.43000 0.30060
C         19.61000        9.83000        7.61000 -0.302700
H         20.18000       10.66000        8.04000 0.00070
Cl        20.26000        8.30000        8.30000 0.30060
Cl        17.92000        9.92000        8.12000 0.30060
Cl        19.75000        9.79000        5.87000 0.30060
C         18.73000       18.05000       15.34000 -0.302700
H         18.27000       17.98000       14.35000 0.00070
Cl        20.49000       18.04000       15.10000 0.30060
Cl        18.00000       19.49000       16.03000 0.30060
Cl        18.18000       16.61000       16.17000 0.30060
C          9.98000        9.59000       17.21000 -0.302700
H         10.09000        8.55000       17.52000 0.00070
Cl         8.88000        9.80000       15.80000 0.30060
Cl         9.55000       10.63000       18.60000 0.30060
Cl        11.59000       10.13000       16.65000 0.30060
C         15.03000       15.62000       21.59000 -0.302700
H         15.14000       14.78000       22.28000 0.00070
Cl        15.50000       14.75000       20.10000 0.30060
Cl        13.37000       16.20000       21.58000 0.30060
Cl        16.19000       16.89000       22.11000 0.30060
C         14.47000       10.10000        9.10000 -0.302700
H         15.01000        9.41000        8.44000 0.00070
Cl        15.09000        9.69000       10.71000 0.30060
Cl        14.94000       11.74000        8.50000 0.30060
Cl        12.72000        9.84000        8.83000 0.30060
C          2.49000       14.23000        7.92000 -0.302700
H          2.71000       13.19000        7.67000 0.00070
Cl         1.19000       14.05000        9.18000 0.30060
Cl         3.84000       15.21000        8.56000 0.30060
Cl         1.69000       14.91000        6.50000 0.30060
C          3.38000        6.56000       12.23000 -0.302700
H          3.88000        7.00000       13.09000 0.00070
Cl         4.33000        5.18000       11.62000 0.30060
Cl         1.86000        5.84000       12.87000 0.30060
Cl         3.19000        7.78000       10.97000 0.30060
C          2.49000       11.64000       14.32000 -0.302700
H          2.91000       10.63000       14.40000 0.00070
Cl         2.82000       12.51000       15.82000 0.30060
Cl         3.42000       12.17000       12.85000 0.30060
Cl         0.77000       11.71000       13.93000 0.30060
C          7.98000       14.96000       19.38000 -0.302700
H          6.92000       15.10000       19.65000 0.00070
Cl         8.71000       14.12000       20.82000 0.30060
Cl         8.13000       13.78000       18.09000 0.30060
Cl         8.70000       16.51000       18.91000 0.30060
C         17.14000       14.35000        9.36000 -0.302700
H         16.40000       14.01000        8.63000 0.00070
Cl        17.51000       15.97000        8.93000 0.30060
Cl        16.36000       14.02000       10.96000 0.30060
Cl        18.54000       13.25000        8.96000 0.30060
C          4.62000        7.68000       15.59000 -0.302700
H          4.90000        7.97000       16.61000 0.00070
Cl         4.90000        5.98000       15.32000 0.30060
Cl         2.86000        8.17000       15.51000 0.30060
Cl         5.71000        8.64000       14.51000 0.30060
C         10.65000        7.02000       20.88000 -0.302700
H         11.13000        7.70000       21.59000 0.00070
Cl         8.99000        7.62000       20.63000 0.30060
Cl        11.68000        7.03000       19.43000 0.30060
Cl        10.70000        5.36000       21.54000 0.30060
C         16.23000       10.47000        3.52000 -0.302700
H         17.06000       10.73000        4.17000 0.00070
Cl        16.65000        8.91000        2.80000 0.30060
Cl        14.89000       10.36000        4.67000 0.30060
Cl        16.10000       11.75000        2.39000 0.30060
C          5.07000        9.85000       19.61000 -0.302700
H          4.27000       10.34000       20.16000 0.00070
Cl         6.66000       10.29000       20.41000 0.30060
Cl         4.59000        8.16000       19.96000 0.30060
Cl         4.83000       10.19000       17.93000 0.30060
C         18.05000       14.55000        4.58000 -0.302700
H         18.56000       15.34000        5.14000 0.00070
Cl        16.54000       14.17000        5.51000 0.30060
Cl        17.95000       15.33000        2.93000 0.30060
Cl        19.12000       13.12000        4.60000 0.30060
C          6.98000        5.45000       18.35000 -0.302700
H          6.85000        6.52000       18.53000 0.00070
Cl         8.06000        4.68000       19.55000 0.30060
Cl         5.34000        4.79000       18.53000 0.30060
Cl         7.71000        5.32000       16.76000 0.30060
C          7.32000       13.52000       13.25000 -0.302700
H          8.13000       14.00000       13.80000 0.00070
Cl         6.89000       12.01000       14.12000 0.30060
Cl         5.89000       14.58000       13.33000 0.30060
Cl         7.68000       13.28000       11.52000 0.30060
C         21.19000       17.76000        9.16000 -0.302700
H         21.20000       17.85000       10.25000 0.00070
Cl        20.68000       16.08000        8.79000 0.30060
Cl        19.98000       19.00000        8.64000 0.30060
Cl        22.79000       18.02000        8.49000 0.30060
C         19.74000       11.60000       14.21000 -0.302700
H         19.69000       12.33000       15.02000 0.00070
Cl        20.31000       10.03000       14.85000 0.30060
Cl        18.03000       11.41000       13.66000 0.30060
Cl        20.75000       12.21000       12.90000 0.30060
C         10.20000       18.57000        8.35000 -0.302700
H          9.81000       18.19000        7.40000 0.00070
Cl        11.93000       18.86000        8.03000 0.30060
Cl         9.40000       20.10000        8.87000 0.30060
Cl        10.04000       17.24000        9.48000 0.30060
C          7.51000       11.52000        2.83000 -0.302700
H          6.78000       12.12000        3.37000 0.00070
Cl         6.63000       10.12000        2.07000 0.30060
Cl         8.06000       12.71000        1.64000 0.30060
Cl         8.83000       11.15000        3.97000 0.30060
C         14.61000       19.80000       19.88000 -0.302700
H         14.75000       19.17000       20.76000 0.00070
Cl        13.57000       18.98000       18.64000 0.30060
Cl        13.87000       21.34000       20.25000 0.30060
Cl        16.25000       20.05000       19.20000 0.30060
C          4.20000       19.52000       14.20000 -0.302700
H          3.67000       18.69000       14.65000 0.00070
Cl         4.33000       20.86000       15.43000 0.30060
Cl         5.78000       19.09000       13.64000 0.30060
Cl         3.26000       20.16000       12.82000 0.30060
C         17.25000        7.21000       13.64000 -0.302700
H         17.93000        7.05000       14.48000 0.00070
Cl        15.94000        8.29000       14.09000 0.30060
Cl        18.36000        7.82000       12.34000 0.30060
Cl        16.54000        5.59000       13.24000 0.30060
C         10.44000       17.52000       15.07000 -0.302700
H         11.39000       16.97000       15.00000 0.00070
Cl        10.70000       18.76000       16.29000 0.30060
Cl        10.30000       18.27000       13.47000 0.30060
Cl         9.18000       16.30000       15.43000 0.30060
C          6.48000       17.60000        4.44000 -0.302700
H          6.88000       18.50000        4.91000 0.00070
Cl         7.86000       16.51000        4.00000 0.30060
Cl         5.46000       16.80000        5.70000 0.30060
Cl         5.61000       17.93000        3.03000 0.30060
C         13.38000       14.53000        4.41000 -0.302700
H         14.30000       14.11000        4.00000 0.00070
Cl        12.25000       14.67000        3.04000 0.30060
Cl        12.89000       13.24000        5.56000 0.30060
Cl        13.69000       16.16000        5.13000 0.30060
C         12.85000        5.49000        7.69000 -0.302700
H         13.13000        5.42000        8.74000 0.00070
Cl        13.34000        3.97000        6.90000 0.30060
Cl        11.07000        5.78000        7.73000 0.30060
Cl        13.63000        6.80000        6.82000 0.30060
C          4.20000       13.88000       18.71000 -0.302700
H          4.63000       13.05000       18.15000 0.00070
Cl         2.45000       13.83000       18.93000 0.30060
Cl         4.95000       13.68000       20.30000 0.30060
Cl         4.55000       15.47000       17.94000 0.30060
C         11.98000       14.11000       16.67000 -0.302700
H         11.01000       14.10000       17.19000 0.00070
Cl        12.73000       15.72000       16.74000 0.30060
Cl        13.07000       13.08000       17.59000 0.30060
Cl        11.82000       13.51000       15.02000 0.30060
C          7.53000       11.13000        8.03000 -0.302700
H          8.25000       11.13000        8.85000 0.00070
Cl         8.15000        9.87000        7.00000 0.30060
Cl         5.86000       10.65000        8.64000 0.30060
Cl         7.43000       12.75000        7.29000 0.30060
C         14.93000       18.47000       12.75000 -0.302700
H         15.72000       18.14000       12.07000 0.00070
Cl        15.30000       20.06000       13.25000 0.30060
Cl        13.33000       18.62000       11.91000 0.30060
Cl        14.72000       17.47000       14.24000 0.30060
C         12.77000        6.46000       14.43000 -0.302700
H         13.47000        5.84000       13.88000 0.00070
Cl        11.16000        5.62000       14.49000 0.30060
Cl        13.38000        6.56000       16.08000 0.30060
Cl        12.61000        8.08000       13.85000 0.30060

%Mem = 2GB
%nproc=16
# b3lyp/6-31g* td 

Butadiene tddft 

0 1
C         12.23000       13.09000       11.41000 
H         12.52000       13.30000       12.44000 
C         11.50000       11.92000       11.05000 
H         11.13000       11.85000       10.03000 
C         11.02000       11.07000       11.96000 
H         11.22000       11.09000       13.03000 
H         10.54000       10.18000       11.56000 
C         12.44000       14.10000       10.53000 
H         12.22000       13.89000        9.48000 
H         12.88000       15.06000       10.79000 
  
C          4.03000       19.38000        9.28000 -0.302700
H          3.83000       20.44000        9.46000 0.00070
Cl         4.54000       19.01000        7.62000 0.30060
Cl         5.39000       19.01000       10.40000 0.30060
Cl         2.64000       18.38000        9.74000 0.30060
C          4.05000        8.47000        5.27000 -0.302700
H          3.44000        7.96000        4.52000 0.00070
Cl         5.74000        7.93000        5.11000 0.30060
Cl         3.86000       10.24000        4.97000 0.30060
Cl         3.33000        8.07000        6.88000 0.30060
C          9.36000        8.05000        2.35000 -0.302700
H          8.61000        8.79000        2.62000 0.00070
Cl         9.13000        7.36000        0.70000 0.30060
Cl        10.92000        8.84000        2.48000 0.30060
Cl         9.37000        6.77000        3.57000 0.30060
C         12.07000        3.55000       10.96000 -0.302700
H         11.77000        3.02000       11.87000 0.00070
Cl        10.66000        3.41000       10.03000 0.30060
Cl        12.59000        5.14000       11.38000 0.30060
Cl        13.49000        2.75000       10.25000 0.30060
C          8.85000        7.31000       12.06000 -0.302700
H          9.43000        7.52000       12.97000 0.00070
Cl         7.72000        5.95000       12.35000 0.30060
Cl         8.08000        8.85000       11.59000 0.30060
Cl        10.04000        6.81000       10.86000 0.30060
C         17.22000       10.54000       17.97000 -0.302700
H         16.84000       10.12000       18.90000 0.00070
Cl        15.90000       10.56000       16.82000 0.30060
Cl        17.82000       12.10000       18.54000 0.30060
Cl        18.54000        9.40000       17.44000 0.30060
C          8.40000        3.53000        6.20000 -0.302700
H          8.81000        3.22000        7.16000 0.00070
Cl         7.71000        5.14000        6.38000 0.30060
Cl         9.63000        3.47000        4.87000 0.30060
Cl         7.13000        2.22000        6.01000 0.30060
C         12.71000       10.32000       22.06000 -0.302700
H         13.11000       10.94000       22.86000 0.00070
Cl        13.17000        8.67000       22.39000 0.30060
Cl        10.94000       10.58000       22.11000 0.30060
Cl        13.32000       10.58000       20.43000 0.30060
C         19.61000        9.83000        7.61000 -0.302700
H         20.18000       10.66000        8.04000 0.00070
Cl        20.26000        8.30000        8.30000 0.30060
Cl        17.92000        9.92000        8.12000 0.30060
Cl        19.75000        9.79000        5.87000 0.30060
C         18.73000       18.05000       15.34000 -0.302700
H         18.27000       17.98000       14.35000 0.00070
Cl        20.49000       18.04000       15.10000 0.30060
Cl        18.00000       19.49000       16.03000 0.30060
Cl        18.18000       16.61000       16.17000 0.30060
C          9.98000        9.59000       17.21000 -0.302700
H         10.09000        8.55000       17.52000 0.00070
Cl         8.88000        9.80000       15.80000 0.30060
Cl         9.55000       10.63000       18.60000 0.30060
Cl        11.59000       10.13000       16.65000 0.30060
C         15.03000       15.62000       21.59000 -0.302700
H         15.14000       14.78000       22.28000 0.00070
Cl        15.50000       14.75000       20.10000 0.30060
Cl        13.37000       16.20000       21.58000 0.30060
Cl        16.19000       16.89000       22.11000 0.30060
C         14.47000       10.10000        9.10000 -0.302700
H         15.01000        9.41000        8.44000 0.00070
Cl        15.09000        9.69000       10.71000 0.30060
Cl        14.94000       11.74000        8.50000 0.30060
Cl        12.72000        9.84000        8.83000 0.30060
C          2.49000       14.23000        7.92000 -0.302700
H          2.71000       13.19000        7.67000 0.00070
Cl         1.19000       14.05000        9.18000 0.30060
Cl         3.84000       15.21000        8.56000 0.30060
Cl         1.69000       14.91000        6.50000 0.30060
C          3.38000        6.56000       12.23000 -0.302700
H          3.88000        7.00000       13.09000 0.00070
Cl         4.33000        5.18000       11.62000 0.30060
Cl         1.86000        5.84000       12.87000 0.30060
Cl         3.19000        7.78000       10.97000 0.30060
C          2.49000       11.64000       14.32000 -0.302700
H          2.91000       10.63000       14.40000 0.00070
Cl         2.82000       12.51000       15.82000 0.30060
Cl         3.42000       12.17000       12.85000 0.30060
Cl         0.77000       11.71000       13.93000 0.30060
C          7.98000       14.96000       19.38000 -0.302700
H          6.92000       15.10000       19.65000 0.00070
Cl         8.71000       14.12000       20.82000 0.30060
Cl         8.13000       13.78000       18.09000 0.30060
Cl         8.70000       16.51000       18.91000 0.30060
C         17.14000       14.35000        9.36000 -0.302700
H         16.40000       14.01000        8.63000 0.00070
Cl        17.51000       15.97000        8.93000 0.30060
Cl        16.36000       14.02000       10.96000 0.30060
Cl        18.54000       13.25000        8.96000 0.30060
C          4.62000        7.68000       15.59000 -0.302700
H          4.90000        7.97000       16.61000 0.00070
Cl         4.90000        5.98000       15.32000 0.30060
Cl         2.86000        8.17000       15.51000 0.30060
Cl         5.71000        8.64000       14.51000 0.30060
C         10.65000        7.02000       20.88000 -0.302700
H         11.13000        7.70000       21.59000 0.00070
Cl         8.99000        7.62000       20.63000 0.30060
Cl        11.68000        7.03000       19.43000 0.30060
Cl        10.70000        5.36000       21.54000 0.30060
C         16.23000       10.47000        3.52000 -0.302700
H         17.06000       10.73000        4.17000 0.00070
Cl        16.65000        8.91000        2.80000 0.30060
Cl        14.89000       10.36000        4.67000 0.30060
Cl        16.10000       11.75000        2.39000 0.30060
C          5.07000        9.85000       19.61000 -0.302700
H          4.27000       10.34000       20.16000 0.00070
Cl         6.66000       10.29000       20.41000 0.30060
Cl         4.59000        8.16000       19.96000 0.30060
Cl         4.83000       10.19000       17.93000 0.30060
C         18.05000       14.55000        4.58000 -0.302700
H         18.56000       15.34000        5.14000 0.00070
Cl        16.54000       14.17000        5.51000 0.30060
Cl        17.95000       15.33000        2.93000 0.30060
Cl        19.12000       13.12000        4.60000 0.30060
C          6.98000        5.45000       18.35000 -0.302700
H          6.85000        6.52000       18.53000 0.00070
Cl         8.06000        4.68000       19.55000 0.30060
Cl         5.34000        4.79000       18.53000 0.30060
Cl         7.71000        5.32000       16.76000 0.30060
C          7.32000       13.52000       13.25000 -0.302700
H          8.13000       14.00000       13.80000 0.00070
Cl         6.89000       12.01000       14.12000 0.30060
Cl         5.89000       14.58000       13.33000 0.30060
Cl         7.68000       13.28000       11.52000 0.30060
C         21.19000       17.76000        9.16000 -0.302700
H         21.20000       17.85000       10.25000 0.00070
Cl        20.68000       16.08000        8.79000 0.30060
Cl        19.98000       19.00000        8.64000 0.30060
Cl        22.79000       18.02000        8.49000 0.30060
C         19.74000       11.60000       14.21000 -0.302700
H         19.69000       12.33000       15.02000 0.00070
Cl        20.31000       10.03000       14.85000 0.30060
Cl        18.03000       11.41000       13.66000 0.30060
Cl        20.75000       12.21000       12.90000 0.30060
C         10.20000       18.57000        8.35000 -0.302700
H          9.81000       18.19000        7.40000 0.00070
Cl        11.93000       18.86000        8.03000 0.30060
Cl         9.40000       20.10000        8.87000 0.30060
Cl        10.04000       17.24000        9.48000 0.30060
C          7.51000       11.52000        2.83000 -0.302700
H          6.78000       12.12000        3.37000 0.00070
Cl         6.63000       10.12000        2.07000 0.30060
Cl         8.06000       12.71000        1.64000 0.30060
Cl         8.83000       11.15000        3.97000 0.30060
C         14.61000       19.80000       19.88000 -0.302700
H         14.75000       19.17000       20.76000 0.00070
Cl        13.57000       18.98000       18.64000 0.30060
Cl        13.87000       21.34000       20.25000 0.30060
Cl        16.25000       20.05000       19.20000 0.30060
C          4.20000       19.52000       14.20000 -0.302700
H          3.67000       18.69000       14.65000 0.00070
Cl         4.33000       20.86000       15.43000 0.30060
Cl         5.78000       19.09000       13.64000 0.30060
Cl         3.26000       20.16000       12.82000 0.30060
C         17.25000        7.21000       13.64000 -0.302700
H         17.93000        7.05000       14.48000 0.00070
Cl        15.94000        8.29000       14.09000 0.30060
Cl        18.36000        7.82000       12.34000 0.30060
Cl        16.54000        5.59000       13.24000 0.30060
C         10.44000       17.52000       15.07000 -0.302700
H         11.39000       16.97000       15.00000 0.00070
Cl        10.70000       18.76000       16.29000 0.30060
Cl        10.30000       18.27000       13.47000 0.30060
Cl         9.18000       16.30000       15.43000 0.30060
C          6.48000       17.60000        4.44000 -0.302700
H          6.88000       18.50000        4.91000 0.00070
Cl         7.86000       16.51000        4.00000 0.30060
Cl         5.46000       16.80000        5.70000 0.30060
Cl         5.61000       17.93000        3.03000 0.30060
C         13.38000       14.53000        4.41000 -0.302700
H         14.30000       14.11000        4.00000 0.00070
Cl        12.25000       14.67000        3.04000 0.30060
Cl        12.89000       13.24000        5.56000 0.30060
Cl        13.69000       16.16000        5.13000 0.30060
C         12.85000        5.49000        7.69000 -0.302700
H         13.13000        5.42000        8.74000 0.00070
Cl        13.34000        3.97000        6.90000 0.30060
Cl        11.07000        5.78000        7.73000 0.30060
Cl        13.63000        6.80000        6.82000 0.30060
C          4.20000       13.88000       18.71000 -0.302700
H          4.63000       13.05000       18.15000 0.00070
Cl         2.45000       13.83000       18.93000 0.30060
Cl         4.95000       13.68000       20.30000 0.30060
Cl         4.55000       15.47000       17.94000 0.30060
C         11.98000       14.11000       16.67000 -0.302700
H         11.01000       14.10000       17.19000 0.00070
Cl        12.73000       15.72000       16.74000 0.30060
Cl        13.07000       13.08000       17.59000 0.30060
Cl        11.82000       13.51000       15.02000 0.30060
C          7.53000       11.13000        8.03000 -0.302700
H          8.25000       11.13000        8.85000 0.00070
Cl         8.15000        9.87000        7.00000 0.30060
Cl         5.86000       10.65000        8.64000 0.30060
Cl         7.43000       12.75000        7.29000 0.30060
C         14.93000       18.47000       12.75000 -0.302700
H         15.72000       18.14000       12.07000 0.00070
Cl        15.30000       20.06000       13.25000 0.30060
Cl        13.33000       18.62000       11.91000 0.30060
Cl        14.72000       17.47000       14.24000 0.30060
C         12.77000        6.46000       14.43000 -0.302700
H         13.47000        5.84000       13.88000 0.00070
Cl        11.16000        5.62000       14.49000 0.30060
Cl        13.38000        6.56000       16.08000 0.30060
Cl        12.61000        8.08000       13.85000 0.30060

