%Mem = 2GB
%nproc=16
# b3lyp/6-31g* td 

Butadiene tddft 

0 1
C         12.73000       12.53000       12.42000 
H         13.62000       12.65000       11.81000 
C         11.85000       11.34000       12.15000 
H         11.11000       11.15000       12.93000 
C         12.01000       10.57000       11.09000 
H         12.82000       10.83000       10.40000 
H         11.33000        9.78000       10.80000 
C         12.51000       13.35000       13.48000 
H         11.58000       13.26000       14.04000 
H         13.16000       14.19000       13.71000 
  
C          5.99000       16.79000       13.90000 -0.302700
H          6.23000       15.79000       13.53000 0.00070
Cl         5.48000       17.63000       12.43000 0.30060
Cl         4.68000       16.57000       15.17000 0.30060
Cl         7.54000       17.45000       14.54000 0.30060
C          7.24000       18.86000        6.79000 -0.302700
H          6.24000       18.97000        6.37000 0.00070
Cl         7.27000       19.15000        8.66000 0.30060
Cl         7.71000       17.12000        6.54000 0.30060
Cl         8.48000       19.89000        6.12000 0.30060
C         21.41000       17.12000       14.16000 -0.302700
H         21.56000       16.11000       14.55000 0.00070
Cl        22.41000       17.47000       12.74000 0.30060
Cl        19.70000       17.15000       13.76000 0.30060
Cl        21.62000       18.25000       15.56000 0.30060
C         14.88000       15.36000       20.59000 -0.302700
H         14.69000       16.43000       20.46000 0.00070
Cl        16.14000       14.77000       19.39000 0.30060
Cl        15.37000       15.04000       22.30000 0.30060
Cl        13.34000       14.51000       20.28000 0.30060
C         20.27000        6.29000       12.59000 -0.302700
H         19.79000        6.40000       11.62000 0.00070
Cl        20.76000        4.62000       12.90000 0.30060
Cl        21.67000        7.44000       12.60000 0.30060
Cl        18.98000        6.78000       13.77000 0.30060
C         18.43000        4.65000        8.89000 -0.302700
H         19.27000        4.00000        8.63000 0.00070
Cl        18.98000        6.29000        9.28000 0.30060
Cl        17.52000        4.82000        7.38000 0.30060
Cl        17.55000        3.83000       10.28000 0.30060
C          9.61000        4.56000       16.33000 -0.302700
H         10.24000        5.22000       16.93000 0.00070
Cl         8.92000        3.31000       17.40000 0.30060
Cl         8.24000        5.54000       15.66000 0.30060
Cl        10.74000        3.91000       15.19000 0.30060
C          8.34000       13.17000       17.08000 -0.302700
H          8.32000       12.11000       17.34000 0.00070
Cl         9.18000       13.91000       18.50000 0.30060
Cl         9.29000       13.32000       15.57000 0.30060
Cl         6.69000       13.66000       17.04000 0.30060
C         21.66000       13.88000        8.06000 -0.302700
H         22.35000       14.38000        7.38000 0.00070
Cl        22.02000       14.62000        9.69000 0.30060
Cl        19.89000       14.01000        7.53000 0.30060
Cl        22.11000       12.15000        8.06000 0.30060
C         19.85000       19.27000        9.80000 -0.302700
H         20.84000       19.71000        9.79000 0.00070
Cl        19.27000       19.59000       11.42000 0.30060
Cl        18.89000       20.15000        8.55000 0.30060
Cl        19.94000       17.49000        9.52000 0.30060
C         10.37000        3.15000        6.98000 -0.302700
H         10.79000        2.59000        7.82000 0.00070
Cl         8.61000        3.29000        7.20000 0.30060
Cl        11.29000        4.64000        6.74000 0.30060
Cl        10.67000        2.05000        5.62000 0.30060
C         10.56000        9.67000       17.27000 -0.302700
H          9.62000       10.06000       17.67000 0.00070
Cl        11.90000       10.70000       17.77000 0.30060
Cl        10.95000        7.94000       17.70000 0.30060
Cl        10.48000        9.91000       15.48000 0.30060
C         16.07000       12.12000       15.87000 -0.302700
H         16.15000       13.08000       15.37000 0.00070
Cl        17.59000       12.04000       16.92000 0.30060
Cl        14.69000       12.41000       16.94000 0.30060
Cl        15.80000       10.87000       14.64000 0.30060
C         12.23000        8.08000        4.01000 -0.302700
H         12.17000        9.14000        4.26000 0.00070
Cl        13.29000        7.40000        5.29000 0.30060
Cl        10.63000        7.38000        4.23000 0.30060
Cl        13.11000        7.99000        2.46000 0.30060
C         17.39000       15.16000        3.88000 -0.302700
H         18.07000       16.00000        4.07000 0.00070
Cl        18.22000       13.73000        4.48000 0.30060
Cl        15.84000       15.52000        4.58000 0.30060
Cl        17.43000       15.23000        2.08000 0.30060
C         13.11000       17.93000        4.08000 -0.302700
H         12.42000       18.76000        3.95000 0.00070
Cl        12.47000       16.78000        5.32000 0.30060
Cl        13.24000       16.83000        2.64000 0.30060
Cl        14.66000       18.66000        4.54000 0.30060
C          7.89000       20.11000       17.23000 -0.302700
H          8.62000       19.92000       16.44000 0.00070
Cl         6.23000       20.36000       16.57000 0.30060
Cl         8.06000       18.70000       18.35000 0.30060
Cl         8.39000       21.66000       17.99000 0.30060
C          6.62000        8.83000       12.60000 -0.302700
H          6.80000        9.84000       12.22000 0.00070
Cl         5.23000        9.05000       13.69000 0.30060
Cl         6.20000        7.90000       11.12000 0.30060
Cl         8.19000        8.29000       13.37000 0.30060
C         14.41000        3.51000       18.65000 -0.302700
H         14.70000        3.62000       19.70000 0.00070
Cl        14.80000        4.93000       17.70000 0.30060
Cl        15.33000        2.10000       18.11000 0.30060
Cl        12.65000        3.08000       18.49000 0.30060
C         17.31000       17.04000       16.87000 -0.302700
H         16.46000       17.00000       17.55000 0.00070
Cl        18.88000       16.79000       17.73000 0.30060
Cl        17.17000       15.76000       15.63000 0.30060
Cl        17.07000       18.70000       16.25000 0.30060
C          4.99000        8.83000        6.81000 -0.302700
H          6.09000        8.87000        6.80000 0.00070
Cl         4.29000        9.00000        5.21000 0.30060
Cl         4.67000        7.22000        7.53000 0.30060
Cl         4.38000       10.04000        7.94000 0.30060
C         15.83000       17.22000        9.32000 -0.302700
H         16.75000       17.11000        8.74000 0.00070
Cl        15.99000       16.26000       10.83000 0.30060
Cl        15.63000       18.86000        9.85000 0.30060
Cl        14.40000       16.89000        8.41000 0.30060
C         11.07000       16.42000       11.11000 -0.302700
H         11.62000       17.36000       11.26000 0.00070
Cl        12.26000       15.26000       10.60000 0.30060
Cl        10.16000       16.01000       12.51000 0.30060
Cl         9.92000       16.74000        9.73000 0.30060
C         15.69000       22.18000       11.95000 -0.302700
H         15.87000       21.11000       11.81000 0.00070
Cl        16.59000       22.97000       10.67000 0.30060
Cl        13.94000       22.54000       11.95000 0.30060
Cl        16.25000       22.47000       13.60000 0.30060
C          9.30000       12.24000        5.82000 -0.302700
H          9.78000       11.69000        5.01000 0.00070
Cl         9.87000       13.96000        5.80000 0.30060
Cl         7.57000       12.23000        5.66000 0.30060
Cl         9.66000       11.38000        7.34000 0.30060
C         20.66000       11.97000       14.15000 -0.302700
H         20.49000       11.23000       14.93000 0.00070
Cl        19.34000       13.20000       14.09000 0.30060
Cl        22.22000       12.87000       14.40000 0.30060
Cl        20.66000       11.04000       12.59000 0.30060
C          6.82000        9.89000       19.13000 -0.302700
H          6.01000       10.59000       18.95000 0.00070
Cl         6.09000        8.93000       20.47000 0.30060
Cl         7.22000        8.95000       17.65000 0.30060
Cl         8.35000       10.58000       19.66000 0.30060
C         13.57000       18.59000       13.84000 -0.302700
H         13.57000       18.78000       14.92000 0.00070
Cl        12.36000       19.69000       13.21000 0.30060
Cl        15.21000       18.98000       13.39000 0.30060
Cl        13.00000       16.91000       13.57000 0.30060
C          2.06000       14.80000       11.15000 -0.302700
H          1.14000       14.97000       10.59000 0.00070
Cl         2.21000       15.74000       12.67000 0.30060
Cl         1.95000       13.08000       11.55000 0.30060
Cl         3.48000       15.17000       10.09000 0.30060
C         14.74000        2.11000        8.08000 -0.302700
H         15.66000        2.27000        8.64000 0.00070
Cl        14.57000        3.10000        6.58000 0.30060
Cl        14.58000        0.36000        7.56000 0.30060
Cl        13.47000        2.53000        9.24000 0.30060
C          6.47000       12.65000       11.95000 -0.302700
H          6.44000       13.72000       11.74000 0.00070
Cl         6.48000       12.84000       13.76000 0.30060
Cl         4.95000       11.94000       11.10000 0.30060
Cl         7.99000       11.87000       11.33000 0.30060
C         15.54000       10.92000       21.93000 -0.302700
H         15.46000       11.92000       22.37000 0.00070
Cl        16.52000       11.08000       20.46000 0.30060
Cl        16.15000        9.71000       23.05000 0.30060
Cl        13.85000       10.60000       21.46000 0.30060
C         16.04000        2.58000       14.17000 -0.302700
H         15.70000        2.04000       15.05000 0.00070
Cl        17.67000        2.01000       13.81000 0.30060
Cl        14.88000        2.36000       12.83000 0.30060
Cl        16.23000        4.27000       14.68000 0.30060
C         12.02000       13.37000        2.14000 -0.302700
H         11.40000       14.00000        2.78000 0.00070
Cl        13.77000       13.38000        2.42000 0.30060
Cl        11.41000       11.81000        2.29000 0.30060
Cl        11.71000       13.93000        0.50000 0.30060
C         13.11000        7.95000       13.92000 -0.302700
H         12.95000        8.96000       14.31000 0.00070
Cl        14.47000        8.15000       12.73000 0.30060
Cl        13.38000        6.83000       15.25000 0.30060
Cl        11.64000        7.48000       13.10000 0.30060
C         17.28000       10.11000       10.73000 -0.302700
H         17.23000        9.87000       11.80000 0.00070
Cl        16.89000       11.87000       10.80000 0.30060
Cl        18.95000        9.98000       10.09000 0.30060
Cl        16.13000        9.24000        9.75000 0.30060
C         14.60000       12.65000        5.86000 -0.302700
H         15.03000       13.47000        5.30000 0.00070
Cl        14.61000       11.25000        4.73000 0.30060
Cl        15.68000       12.47000        7.26000 0.30060
Cl        13.05000       13.05000        6.57000 0.30060
C         11.33000       21.75000        9.58000 -0.302700
H         12.11000       22.14000       10.24000 0.00070
Cl        10.86000       23.19000        8.59000 0.30060
Cl        12.08000       20.49000        8.57000 0.30060
Cl         9.91000       21.27000       10.55000 0.30060

%Mem = 2GB
%nproc=16
# b3lyp/6-31g* td 

Butadiene tddft 

0 1
C         12.73000       12.53000       12.42000 
H         13.62000       12.65000       11.81000 
C         11.85000       11.34000       12.15000 
H         11.11000       11.15000       12.93000 
C         12.01000       10.57000       11.09000 
H         12.82000       10.83000       10.40000 
H         11.33000        9.78000       10.80000 
C         12.51000       13.35000       13.48000 
H         11.58000       13.26000       14.04000 
H         13.16000       14.19000       13.71000 
  
C          5.99000       16.79000       13.90000 -0.302700
H          6.23000       15.79000       13.53000 0.00070
Cl         5.48000       17.63000       12.43000 0.30060
Cl         4.68000       16.57000       15.17000 0.30060
Cl         7.54000       17.45000       14.54000 0.30060
C          7.24000       18.86000        6.79000 -0.302700
H          6.24000       18.97000        6.37000 0.00070
Cl         7.27000       19.15000        8.66000 0.30060
Cl         7.71000       17.12000        6.54000 0.30060
Cl         8.48000       19.89000        6.12000 0.30060
C         21.41000       17.12000       14.16000 -0.302700
H         21.56000       16.11000       14.55000 0.00070
Cl        22.41000       17.47000       12.74000 0.30060
Cl        19.70000       17.15000       13.76000 0.30060
Cl        21.62000       18.25000       15.56000 0.30060
C         14.88000       15.36000       20.59000 -0.302700
H         14.69000       16.43000       20.46000 0.00070
Cl        16.14000       14.77000       19.39000 0.30060
Cl        15.37000       15.04000       22.30000 0.30060
Cl        13.34000       14.51000       20.28000 0.30060
C         20.27000        6.29000       12.59000 -0.302700
H         19.79000        6.40000       11.62000 0.00070
Cl        20.76000        4.62000       12.90000 0.30060
Cl        21.67000        7.44000       12.60000 0.30060
Cl        18.98000        6.78000       13.77000 0.30060
C         18.43000        4.65000        8.89000 -0.302700
H         19.27000        4.00000        8.63000 0.00070
Cl        18.98000        6.29000        9.28000 0.30060
Cl        17.52000        4.82000        7.38000 0.30060
Cl        17.55000        3.83000       10.28000 0.30060
C          9.61000        4.56000       16.33000 -0.302700
H         10.24000        5.22000       16.93000 0.00070
Cl         8.92000        3.31000       17.40000 0.30060
Cl         8.24000        5.54000       15.66000 0.30060
Cl        10.74000        3.91000       15.19000 0.30060
C          8.34000       13.17000       17.08000 -0.302700
H          8.32000       12.11000       17.34000 0.00070
Cl         9.18000       13.91000       18.50000 0.30060
Cl         9.29000       13.32000       15.57000 0.30060
Cl         6.69000       13.66000       17.04000 0.30060
C         21.66000       13.88000        8.06000 -0.302700
H         22.35000       14.38000        7.38000 0.00070
Cl        22.02000       14.62000        9.69000 0.30060
Cl        19.89000       14.01000        7.53000 0.30060
Cl        22.11000       12.15000        8.06000 0.30060
C         19.85000       19.27000        9.80000 -0.302700
H         20.84000       19.71000        9.79000 0.00070
Cl        19.27000       19.59000       11.42000 0.30060
Cl        18.89000       20.15000        8.55000 0.30060
Cl        19.94000       17.49000        9.52000 0.30060
C         10.37000        3.15000        6.98000 -0.302700
H         10.79000        2.59000        7.82000 0.00070
Cl         8.61000        3.29000        7.20000 0.30060
Cl        11.29000        4.64000        6.74000 0.30060
Cl        10.67000        2.05000        5.62000 0.30060
C         10.56000        9.67000       17.27000 -0.302700
H          9.62000       10.06000       17.67000 0.00070
Cl        11.90000       10.70000       17.77000 0.30060
Cl        10.95000        7.94000       17.70000 0.30060
Cl        10.48000        9.91000       15.48000 0.30060
C         16.07000       12.12000       15.87000 -0.302700
H         16.15000       13.08000       15.37000 0.00070
Cl        17.59000       12.04000       16.92000 0.30060
Cl        14.69000       12.41000       16.94000 0.30060
Cl        15.80000       10.87000       14.64000 0.30060
C         12.23000        8.08000        4.01000 -0.302700
H         12.17000        9.14000        4.26000 0.00070
Cl        13.29000        7.40000        5.29000 0.30060
Cl        10.63000        7.38000        4.23000 0.30060
Cl        13.11000        7.99000        2.46000 0.30060
C         17.39000       15.16000        3.88000 -0.302700
H         18.07000       16.00000        4.07000 0.00070
Cl        18.22000       13.73000        4.48000 0.30060
Cl        15.84000       15.52000        4.58000 0.30060
Cl        17.43000       15.23000        2.08000 0.30060
C         13.11000       17.93000        4.08000 -0.302700
H         12.42000       18.76000        3.95000 0.00070
Cl        12.47000       16.78000        5.32000 0.30060
Cl        13.24000       16.83000        2.64000 0.30060
Cl        14.66000       18.66000        4.54000 0.30060
C          7.89000       20.11000       17.23000 -0.302700
H          8.62000       19.92000       16.44000 0.00070
Cl         6.23000       20.36000       16.57000 0.30060
Cl         8.06000       18.70000       18.35000 0.30060
Cl         8.39000       21.66000       17.99000 0.30060
C          6.62000        8.83000       12.60000 -0.302700
H          6.80000        9.84000       12.22000 0.00070
Cl         5.23000        9.05000       13.69000 0.30060
Cl         6.20000        7.90000       11.12000 0.30060
Cl         8.19000        8.29000       13.37000 0.30060
C         14.41000        3.51000       18.65000 -0.302700
H         14.70000        3.62000       19.70000 0.00070
Cl        14.80000        4.93000       17.70000 0.30060
Cl        15.33000        2.10000       18.11000 0.30060
Cl        12.65000        3.08000       18.49000 0.30060
C         17.31000       17.04000       16.87000 -0.302700
H         16.46000       17.00000       17.55000 0.00070
Cl        18.88000       16.79000       17.73000 0.30060
Cl        17.17000       15.76000       15.63000 0.30060
Cl        17.07000       18.70000       16.25000 0.30060
C          4.99000        8.83000        6.81000 -0.302700
H          6.09000        8.87000        6.80000 0.00070
Cl         4.29000        9.00000        5.21000 0.30060
Cl         4.67000        7.22000        7.53000 0.30060
Cl         4.38000       10.04000        7.94000 0.30060
C         15.83000       17.22000        9.32000 -0.302700
H         16.75000       17.11000        8.74000 0.00070
Cl        15.99000       16.26000       10.83000 0.30060
Cl        15.63000       18.86000        9.85000 0.30060
Cl        14.40000       16.89000        8.41000 0.30060
C         11.07000       16.42000       11.11000 -0.302700
H         11.62000       17.36000       11.26000 0.00070
Cl        12.26000       15.26000       10.60000 0.30060
Cl        10.16000       16.01000       12.51000 0.30060
Cl         9.92000       16.74000        9.73000 0.30060
C         15.69000       22.18000       11.95000 -0.302700
H         15.87000       21.11000       11.81000 0.00070
Cl        16.59000       22.97000       10.67000 0.30060
Cl        13.94000       22.54000       11.95000 0.30060
Cl        16.25000       22.47000       13.60000 0.30060
C          9.30000       12.24000        5.82000 -0.302700
H          9.78000       11.69000        5.01000 0.00070
Cl         9.87000       13.96000        5.80000 0.30060
Cl         7.57000       12.23000        5.66000 0.30060
Cl         9.66000       11.38000        7.34000 0.30060
C         20.66000       11.97000       14.15000 -0.302700
H         20.49000       11.23000       14.93000 0.00070
Cl        19.34000       13.20000       14.09000 0.30060
Cl        22.22000       12.87000       14.40000 0.30060
Cl        20.66000       11.04000       12.59000 0.30060
C          6.82000        9.89000       19.13000 -0.302700
H          6.01000       10.59000       18.95000 0.00070
Cl         6.09000        8.93000       20.47000 0.30060
Cl         7.22000        8.95000       17.65000 0.30060
Cl         8.35000       10.58000       19.66000 0.30060
C         13.57000       18.59000       13.84000 -0.302700
H         13.57000       18.78000       14.92000 0.00070
Cl        12.36000       19.69000       13.21000 0.30060
Cl        15.21000       18.98000       13.39000 0.30060
Cl        13.00000       16.91000       13.57000 0.30060
C          2.06000       14.80000       11.15000 -0.302700
H          1.14000       14.97000       10.59000 0.00070
Cl         2.21000       15.74000       12.67000 0.30060
Cl         1.95000       13.08000       11.55000 0.30060
Cl         3.48000       15.17000       10.09000 0.30060
C         14.74000        2.11000        8.08000 -0.302700
H         15.66000        2.27000        8.64000 0.00070
Cl        14.57000        3.10000        6.58000 0.30060
Cl        14.58000        0.36000        7.56000 0.30060
Cl        13.47000        2.53000        9.24000 0.30060
C          6.47000       12.65000       11.95000 -0.302700
H          6.44000       13.72000       11.74000 0.00070
Cl         6.48000       12.84000       13.76000 0.30060
Cl         4.95000       11.94000       11.10000 0.30060
Cl         7.99000       11.87000       11.33000 0.30060
C         15.54000       10.92000       21.93000 -0.302700
H         15.46000       11.92000       22.37000 0.00070
Cl        16.52000       11.08000       20.46000 0.30060
Cl        16.15000        9.71000       23.05000 0.30060
Cl        13.85000       10.60000       21.46000 0.30060
C         16.04000        2.58000       14.17000 -0.302700
H         15.70000        2.04000       15.05000 0.00070
Cl        17.67000        2.01000       13.81000 0.30060
Cl        14.88000        2.36000       12.83000 0.30060
Cl        16.23000        4.27000       14.68000 0.30060
C         12.02000       13.37000        2.14000 -0.302700
H         11.40000       14.00000        2.78000 0.00070
Cl        13.77000       13.38000        2.42000 0.30060
Cl        11.41000       11.81000        2.29000 0.30060
Cl        11.71000       13.93000        0.50000 0.30060
C         13.11000        7.95000       13.92000 -0.302700
H         12.95000        8.96000       14.31000 0.00070
Cl        14.47000        8.15000       12.73000 0.30060
Cl        13.38000        6.83000       15.25000 0.30060
Cl        11.64000        7.48000       13.10000 0.30060
C         17.28000       10.11000       10.73000 -0.302700
H         17.23000        9.87000       11.80000 0.00070
Cl        16.89000       11.87000       10.80000 0.30060
Cl        18.95000        9.98000       10.09000 0.30060
Cl        16.13000        9.24000        9.75000 0.30060
C         14.60000       12.65000        5.86000 -0.302700
H         15.03000       13.47000        5.30000 0.00070
Cl        14.61000       11.25000        4.73000 0.30060
Cl        15.68000       12.47000        7.26000 0.30060
Cl        13.05000       13.05000        6.57000 0.30060
C         11.33000       21.75000        9.58000 -0.302700
H         12.11000       22.14000       10.24000 0.00070
Cl        10.86000       23.19000        8.59000 0.30060
Cl        12.08000       20.49000        8.57000 0.30060
Cl         9.91000       21.27000       10.55000 0.30060

