%Mem = 2GB
%nproc=16
# b3lyp/6-31g* td 

Butadiene tddft 

0 1
C         12.72000       12.26000       10.94000 
H         12.94000       13.05000       10.22000 
C         11.65000       11.34000       10.65000 
H         11.26000       10.65000       11.39000 
C         11.10000       11.15000        9.43000 
H         11.41000       11.76000        8.58000 
H         10.25000       10.48000        9.40000 
C         13.38000       12.31000       12.08000 
H         13.26000       11.55000       12.85000 
H         14.14000       13.03000       12.36000 
  
C         17.72000       15.52000       12.07000 -0.302700
H         16.98000       14.82000       11.68000 0.00070
Cl        17.33000       17.22000       11.79000 0.30060
Cl        17.71000       15.40000       13.92000 0.30060
Cl        19.26000       14.94000       11.26000 0.30060
C          6.20000       13.46000       13.04000 -0.302700
H          5.70000       13.34000       12.07000 0.00070
Cl         5.47000       14.78000       13.90000 0.30060
Cl         5.95000       11.95000       13.93000 0.30060
Cl         7.86000       13.83000       12.78000 0.30060
C         15.17000       19.54000       15.32000 -0.302700
H         14.69000       18.75000       14.73000 0.00070
Cl        16.93000       19.35000       14.93000 0.30060
Cl        14.75000       21.15000       14.65000 0.30060
Cl        14.78000       19.57000       17.00000 0.30060
C          2.31000        7.27000       13.62000 -0.302700
H          2.66000        6.55000       14.36000 0.00070
Cl         3.69000        8.18000       13.00000 0.30060
Cl         1.43000        6.49000       12.30000 0.30060
Cl         1.23000        8.41000       14.54000 0.30060
C         18.61000       10.39000       11.71000 -0.302700
H         18.34000        9.38000       11.39000 0.00070
Cl        19.67000       10.14000       13.16000 0.30060
Cl        19.56000       11.11000       10.39000 0.30060
Cl        17.08000       11.18000       12.15000 0.30060
C         15.75000       11.90000       15.76000 -0.302700
H         15.56000       12.17000       14.72000 0.00070
Cl        17.00000       10.63000       15.96000 0.30060
Cl        16.33000       13.30000       16.82000 0.30060
Cl        14.17000       11.18000       16.36000 0.30060
C         16.64000        9.63000        3.11000 -0.302700
H         15.73000        9.96000        3.62000 0.00070
Cl        17.88000       10.90000        3.18000 0.30060
Cl        17.31000        8.42000        4.16000 0.30060
Cl        16.34000        9.15000        1.37000 0.30060
C         10.46000        9.58000       21.20000 -0.302700
H          9.59000        8.94000       21.30000 0.00070
Cl        11.27000        9.68000       22.79000 0.30060
Cl        11.40000        8.97000       19.88000 0.30060
Cl         9.92000       11.26000       20.79000 0.30060
C         17.31000        4.26000        6.76000 -0.302700
H         16.49000        4.96000        6.59000 0.00070
Cl        16.75000        3.20000        8.13000 0.30060
Cl        17.70000        3.38000        5.28000 0.30060
Cl        18.58000        5.37000        7.30000 0.30060
C          9.79000        8.11000       14.55000 -0.302700
H         10.29000        7.52000       15.32000 0.00070
Cl         8.03000        7.71000       14.76000 0.30060
Cl        10.09000        9.89000       14.70000 0.30060
Cl        10.33000        7.52000       12.94000 0.30060
C         10.00000       21.33000       12.04000 -0.302700
H         10.44000       21.90000       11.23000 0.00070
Cl         8.94000       22.48000       12.98000 0.30060
Cl         9.04000       19.98000       11.48000 0.30060
Cl        11.28000       20.68000       12.99000 0.30060
C          5.19000        6.51000        5.57000 -0.302700
H          5.67000        6.24000        4.62000 0.00070
Cl         3.45000        6.08000        5.47000 0.30060
Cl         6.10000        5.45000        6.67000 0.30060
Cl         5.34000        8.20000        6.04000 0.30060
C         11.90000       15.40000       15.70000 -0.302700
H         11.35000       14.70000       16.34000 0.00070
Cl        12.40000       16.97000       16.47000 0.30060
Cl        13.42000       14.63000       15.12000 0.30060
Cl        10.83000       15.62000       14.27000 0.30060
C         15.63000       19.95000       10.10000 -0.302700
H         16.11000       19.03000       10.44000 0.00070
Cl        16.47000       21.15000       11.10000 0.30060
Cl        15.91000       20.09000        8.34000 0.30060
Cl        13.86000       20.01000       10.50000 0.30060
C         16.15000       11.56000       21.42000 -0.302700
H         16.68000       10.76000       21.94000 0.00070
Cl        17.10000       13.06000       21.65000 0.30060
Cl        15.90000       11.31000       19.74000 0.30060
Cl        14.45000       11.63000       21.97000 0.30060
C         13.52000        1.94000        5.95000 -0.302700
H         14.53000        1.58000        5.75000 0.00070
Cl        13.11000        2.16000        7.69000 0.30060
Cl        13.23000        3.58000        5.20000 0.30060
Cl        12.44000        0.89000        5.02000 0.30060
C          4.89000       20.71000       11.26000 -0.302700
H          3.80000       20.63000       11.32000 0.00070
Cl         5.21000       22.06000       10.18000 0.30060
Cl         5.42000       21.26000       12.88000 0.30060
Cl         5.61000       19.19000       10.62000 0.30060
C          6.61000        7.93000       10.34000 -0.302700
H          5.58000        7.97000        9.97000 0.00070
Cl         7.60000        8.29000        8.91000 0.30060
Cl         6.65000        9.39000       11.34000 0.30060
Cl         6.94000        6.37000       11.20000 0.30060
C         20.85000        5.33000       11.58000 -0.302700
H         21.21000        5.15000       12.60000 0.00070
Cl        19.85000        3.95000       11.03000 0.30060
Cl        20.00000        6.85000       11.47000 0.30060
Cl        22.32000        5.40000       10.59000 0.30060
C          8.50000       20.11000       15.33000 -0.302700
H          8.52000       20.20000       14.25000 0.00070
Cl         9.86000       21.03000       16.00000 0.30060
Cl         6.91000       20.71000       15.76000 0.30060
Cl         8.70000       18.39000       15.64000 0.30060
C          8.10000       17.34000        3.84000 -0.302700
H          7.13000       17.82000        4.00000 0.00070
Cl         9.18000       18.64000        3.48000 0.30060
Cl         8.62000       16.45000        5.29000 0.30060
Cl         8.05000       16.17000        2.47000 0.30060
C         11.86000       16.68000        3.28000 -0.302700
H         10.92000       16.88000        3.78000 0.00070
Cl        13.10000       17.63000        4.13000 0.30060
Cl        12.34000       15.04000        3.49000 0.30060
Cl        11.72000       16.96000        1.50000 0.30060
C         13.34000       16.32000        7.86000 -0.302700
H         13.32000       17.26000        7.31000 0.00070
Cl        14.28000       16.37000        9.32000 0.30060
Cl        11.62000       15.99000        8.22000 0.30060
Cl        13.98000       15.09000        6.83000 0.30060
C         13.45000        2.16000       12.41000 -0.302700
H         13.80000        1.74000       11.46000 0.00070
Cl        12.90000        3.77000       12.03000 0.30060
Cl        12.10000        1.20000       13.08000 0.30060
Cl        15.01000        2.41000       13.42000 0.30060
C          8.71000       12.16000        1.84000 -0.302700
H          7.74000       12.59000        1.57000 0.00070
Cl         8.99000       12.51000        3.57000 0.30060
Cl         8.48000       10.40000        1.64000 0.30060
Cl        10.08000       12.58000        0.77000 0.30060
C         19.61000       16.14000        6.81000 -0.302700
H         19.59000       15.53000        5.90000 0.00070
Cl        21.34000       16.41000        7.27000 0.30060
Cl        18.71000       17.64000        6.38000 0.30060
Cl        18.70000       15.40000        8.07000 0.30060
C          8.11000       12.11000       16.80000 -0.302700
H          7.70000       11.66000       15.89000 0.00070
Cl         6.89000       13.13000       17.57000 0.30060
Cl         8.59000       10.72000       17.84000 0.30060
Cl         9.49000       13.05000       16.40000 0.30060
C         10.23000       21.96000        6.62000 -0.302700
H         10.49000       22.66000        5.82000 0.00070
Cl        10.74000       22.58000        8.21000 0.30060
Cl         8.53000       21.62000        6.78000 0.30060
Cl        10.92000       20.37000        6.36000 0.30060
C          9.43000        8.95000        4.70000 -0.302700
H          9.83000        9.68000        4.00000 0.00070
Cl         8.72000        9.94000        6.02000 0.30060
Cl         8.29000        7.74000        4.01000 0.30060
Cl        10.82000        8.00000        5.42000 0.30060
C          6.19000       14.06000        8.56000 -0.302700
H          6.79000       14.86000        8.99000 0.00070
Cl         6.10000       12.67000        9.69000 0.30060
Cl         4.44000       14.43000        8.31000 0.30060
Cl         7.03000       13.65000        7.03000 0.30060
C         11.91000       14.25000       20.26000 -0.302700
H         11.88000       13.18000       20.53000 0.00070
Cl        13.39000       14.51000       19.27000 0.30060
Cl        10.37000       14.44000       19.41000 0.30060
Cl        11.87000       15.22000       21.80000 0.30060
C         10.48000        3.62000       16.13000 -0.302700
H         11.33000        2.96000       15.94000 0.00070
Cl        11.14000        5.11000       16.80000 0.30060
Cl         9.89000        3.94000       14.47000 0.30060
Cl         9.22000        3.03000       17.21000 0.30060
C         15.54000        6.66000       12.56000 -0.302700
H         14.89000        5.95000       13.07000 0.00070
Cl        16.81000        7.00000       13.81000 0.30060
Cl        16.25000        5.90000       11.10000 0.30060
Cl        14.66000        8.16000       12.14000 0.30060
C          4.91000       11.78000        4.89000 -0.302700
H          5.61000       11.37000        5.63000 0.00070
Cl         5.25000       13.46000        4.30000 0.30060
Cl         4.71000       10.64000        3.62000 0.30060
Cl         3.31000       11.83000        5.68000 0.30060
C         14.88000        8.87000        8.39000 -0.302700
H         14.58000        8.86000        9.44000 0.00070
Cl        15.80000       10.39000        8.21000 0.30060
Cl        15.91000        7.52000        8.05000 0.30060
Cl        13.40000        8.86000        7.27000 0.30060
C         21.05000       10.30000        6.05000 -0.302700
H         21.80000       10.46000        6.82000 0.00070
Cl        21.70000       10.68000        4.45000 0.30060
Cl        20.59000        8.59000        6.28000 0.30060
Cl        19.71000       11.45000        6.28000 0.30060
C         12.79000       11.32000        2.95000 -0.302700
H         11.86000       11.86000        2.78000 0.00070
Cl        14.00000       11.92000        1.75000 0.30060
Cl        13.29000       11.57000        4.65000 0.30060
Cl        12.37000        9.58000        2.65000 0.30060
C          8.58000        2.56000        9.06000 -0.302700
H          7.51000        2.62000        9.28000 0.00070
Cl         9.52000        3.93000        9.56000 0.30060
Cl         9.02000        1.16000       10.12000 0.30060
Cl         8.91000        1.99000        7.41000 0.30060

%Mem = 2GB
%nproc=16
# b3lyp/6-31g* td 

Butadiene tddft 

0 1
C         12.72000       12.26000       10.94000 
H         12.94000       13.05000       10.22000 
C         11.65000       11.34000       10.65000 
H         11.26000       10.65000       11.39000 
C         11.10000       11.15000        9.43000 
H         11.41000       11.76000        8.58000 
H         10.25000       10.48000        9.40000 
C         13.38000       12.31000       12.08000 
H         13.26000       11.55000       12.85000 
H         14.14000       13.03000       12.36000 
  
C         17.72000       15.52000       12.07000 -0.302700
H         16.98000       14.82000       11.68000 0.00070
Cl        17.33000       17.22000       11.79000 0.30060
Cl        17.71000       15.40000       13.92000 0.30060
Cl        19.26000       14.94000       11.26000 0.30060
C          6.20000       13.46000       13.04000 -0.302700
H          5.70000       13.34000       12.07000 0.00070
Cl         5.47000       14.78000       13.90000 0.30060
Cl         5.95000       11.95000       13.93000 0.30060
Cl         7.86000       13.83000       12.78000 0.30060
C         15.17000       19.54000       15.32000 -0.302700
H         14.69000       18.75000       14.73000 0.00070
Cl        16.93000       19.35000       14.93000 0.30060
Cl        14.75000       21.15000       14.65000 0.30060
Cl        14.78000       19.57000       17.00000 0.30060
C          2.31000        7.27000       13.62000 -0.302700
H          2.66000        6.55000       14.36000 0.00070
Cl         3.69000        8.18000       13.00000 0.30060
Cl         1.43000        6.49000       12.30000 0.30060
Cl         1.23000        8.41000       14.54000 0.30060
C         18.61000       10.39000       11.71000 -0.302700
H         18.34000        9.38000       11.39000 0.00070
Cl        19.67000       10.14000       13.16000 0.30060
Cl        19.56000       11.11000       10.39000 0.30060
Cl        17.08000       11.18000       12.15000 0.30060
C         15.75000       11.90000       15.76000 -0.302700
H         15.56000       12.17000       14.72000 0.00070
Cl        17.00000       10.63000       15.96000 0.30060
Cl        16.33000       13.30000       16.82000 0.30060
Cl        14.17000       11.18000       16.36000 0.30060
C         16.64000        9.63000        3.11000 -0.302700
H         15.73000        9.96000        3.62000 0.00070
Cl        17.88000       10.90000        3.18000 0.30060
Cl        17.31000        8.42000        4.16000 0.30060
Cl        16.34000        9.15000        1.37000 0.30060
C         10.46000        9.58000       21.20000 -0.302700
H          9.59000        8.94000       21.30000 0.00070
Cl        11.27000        9.68000       22.79000 0.30060
Cl        11.40000        8.97000       19.88000 0.30060
Cl         9.92000       11.26000       20.79000 0.30060
C         17.31000        4.26000        6.76000 -0.302700
H         16.49000        4.96000        6.59000 0.00070
Cl        16.75000        3.20000        8.13000 0.30060
Cl        17.70000        3.38000        5.28000 0.30060
Cl        18.58000        5.37000        7.30000 0.30060
C          9.79000        8.11000       14.55000 -0.302700
H         10.29000        7.52000       15.32000 0.00070
Cl         8.03000        7.71000       14.76000 0.30060
Cl        10.09000        9.89000       14.70000 0.30060
Cl        10.33000        7.52000       12.94000 0.30060
C         10.00000       21.33000       12.04000 -0.302700
H         10.44000       21.90000       11.23000 0.00070
Cl         8.94000       22.48000       12.98000 0.30060
Cl         9.04000       19.98000       11.48000 0.30060
Cl        11.28000       20.68000       12.99000 0.30060
C          5.19000        6.51000        5.57000 -0.302700
H          5.67000        6.24000        4.62000 0.00070
Cl         3.45000        6.08000        5.47000 0.30060
Cl         6.10000        5.45000        6.67000 0.30060
Cl         5.34000        8.20000        6.04000 0.30060
C         11.90000       15.40000       15.70000 -0.302700
H         11.35000       14.70000       16.34000 0.00070
Cl        12.40000       16.97000       16.47000 0.30060
Cl        13.42000       14.63000       15.12000 0.30060
Cl        10.83000       15.62000       14.27000 0.30060
C         15.63000       19.95000       10.10000 -0.302700
H         16.11000       19.03000       10.44000 0.00070
Cl        16.47000       21.15000       11.10000 0.30060
Cl        15.91000       20.09000        8.34000 0.30060
Cl        13.86000       20.01000       10.50000 0.30060
C         16.15000       11.56000       21.42000 -0.302700
H         16.68000       10.76000       21.94000 0.00070
Cl        17.10000       13.06000       21.65000 0.30060
Cl        15.90000       11.31000       19.74000 0.30060
Cl        14.45000       11.63000       21.97000 0.30060
C         13.52000        1.94000        5.95000 -0.302700
H         14.53000        1.58000        5.75000 0.00070
Cl        13.11000        2.16000        7.69000 0.30060
Cl        13.23000        3.58000        5.20000 0.30060
Cl        12.44000        0.89000        5.02000 0.30060
C          4.89000       20.71000       11.26000 -0.302700
H          3.80000       20.63000       11.32000 0.00070
Cl         5.21000       22.06000       10.18000 0.30060
Cl         5.42000       21.26000       12.88000 0.30060
Cl         5.61000       19.19000       10.62000 0.30060
C          6.61000        7.93000       10.34000 -0.302700
H          5.58000        7.97000        9.97000 0.00070
Cl         7.60000        8.29000        8.91000 0.30060
Cl         6.65000        9.39000       11.34000 0.30060
Cl         6.94000        6.37000       11.20000 0.30060
C         20.85000        5.33000       11.58000 -0.302700
H         21.21000        5.15000       12.60000 0.00070
Cl        19.85000        3.95000       11.03000 0.30060
Cl        20.00000        6.85000       11.47000 0.30060
Cl        22.32000        5.40000       10.59000 0.30060
C          8.50000       20.11000       15.33000 -0.302700
H          8.52000       20.20000       14.25000 0.00070
Cl         9.86000       21.03000       16.00000 0.30060
Cl         6.91000       20.71000       15.76000 0.30060
Cl         8.70000       18.39000       15.64000 0.30060
C          8.10000       17.34000        3.84000 -0.302700
H          7.13000       17.82000        4.00000 0.00070
Cl         9.18000       18.64000        3.48000 0.30060
Cl         8.62000       16.45000        5.29000 0.30060
Cl         8.05000       16.17000        2.47000 0.30060
C         11.86000       16.68000        3.28000 -0.302700
H         10.92000       16.88000        3.78000 0.00070
Cl        13.10000       17.63000        4.13000 0.30060
Cl        12.34000       15.04000        3.49000 0.30060
Cl        11.72000       16.96000        1.50000 0.30060
C         13.34000       16.32000        7.86000 -0.302700
H         13.32000       17.26000        7.31000 0.00070
Cl        14.28000       16.37000        9.32000 0.30060
Cl        11.62000       15.99000        8.22000 0.30060
Cl        13.98000       15.09000        6.83000 0.30060
C         13.45000        2.16000       12.41000 -0.302700
H         13.80000        1.74000       11.46000 0.00070
Cl        12.90000        3.77000       12.03000 0.30060
Cl        12.10000        1.20000       13.08000 0.30060
Cl        15.01000        2.41000       13.42000 0.30060
C          8.71000       12.16000        1.84000 -0.302700
H          7.74000       12.59000        1.57000 0.00070
Cl         8.99000       12.51000        3.57000 0.30060
Cl         8.48000       10.40000        1.64000 0.30060
Cl        10.08000       12.58000        0.77000 0.30060
C         19.61000       16.14000        6.81000 -0.302700
H         19.59000       15.53000        5.90000 0.00070
Cl        21.34000       16.41000        7.27000 0.30060
Cl        18.71000       17.64000        6.38000 0.30060
Cl        18.70000       15.40000        8.07000 0.30060
C          8.11000       12.11000       16.80000 -0.302700
H          7.70000       11.66000       15.89000 0.00070
Cl         6.89000       13.13000       17.57000 0.30060
Cl         8.59000       10.72000       17.84000 0.30060
Cl         9.49000       13.05000       16.40000 0.30060
C         10.23000       21.96000        6.62000 -0.302700
H         10.49000       22.66000        5.82000 0.00070
Cl        10.74000       22.58000        8.21000 0.30060
Cl         8.53000       21.62000        6.78000 0.30060
Cl        10.92000       20.37000        6.36000 0.30060
C          9.43000        8.95000        4.70000 -0.302700
H          9.83000        9.68000        4.00000 0.00070
Cl         8.72000        9.94000        6.02000 0.30060
Cl         8.29000        7.74000        4.01000 0.30060
Cl        10.82000        8.00000        5.42000 0.30060
C          6.19000       14.06000        8.56000 -0.302700
H          6.79000       14.86000        8.99000 0.00070
Cl         6.10000       12.67000        9.69000 0.30060
Cl         4.44000       14.43000        8.31000 0.30060
Cl         7.03000       13.65000        7.03000 0.30060
C         11.91000       14.25000       20.26000 -0.302700
H         11.88000       13.18000       20.53000 0.00070
Cl        13.39000       14.51000       19.27000 0.30060
Cl        10.37000       14.44000       19.41000 0.30060
Cl        11.87000       15.22000       21.80000 0.30060
C         10.48000        3.62000       16.13000 -0.302700
H         11.33000        2.96000       15.94000 0.00070
Cl        11.14000        5.11000       16.80000 0.30060
Cl         9.89000        3.94000       14.47000 0.30060
Cl         9.22000        3.03000       17.21000 0.30060
C         15.54000        6.66000       12.56000 -0.302700
H         14.89000        5.95000       13.07000 0.00070
Cl        16.81000        7.00000       13.81000 0.30060
Cl        16.25000        5.90000       11.10000 0.30060
Cl        14.66000        8.16000       12.14000 0.30060
C          4.91000       11.78000        4.89000 -0.302700
H          5.61000       11.37000        5.63000 0.00070
Cl         5.25000       13.46000        4.30000 0.30060
Cl         4.71000       10.64000        3.62000 0.30060
Cl         3.31000       11.83000        5.68000 0.30060
C         14.88000        8.87000        8.39000 -0.302700
H         14.58000        8.86000        9.44000 0.00070
Cl        15.80000       10.39000        8.21000 0.30060
Cl        15.91000        7.52000        8.05000 0.30060
Cl        13.40000        8.86000        7.27000 0.30060
C         21.05000       10.30000        6.05000 -0.302700
H         21.80000       10.46000        6.82000 0.00070
Cl        21.70000       10.68000        4.45000 0.30060
Cl        20.59000        8.59000        6.28000 0.30060
Cl        19.71000       11.45000        6.28000 0.30060
C         12.79000       11.32000        2.95000 -0.302700
H         11.86000       11.86000        2.78000 0.00070
Cl        14.00000       11.92000        1.75000 0.30060
Cl        13.29000       11.57000        4.65000 0.30060
Cl        12.37000        9.58000        2.65000 0.30060
C          8.58000        2.56000        9.06000 -0.302700
H          7.51000        2.62000        9.28000 0.00070
Cl         9.52000        3.93000        9.56000 0.30060
Cl         9.02000        1.16000       10.12000 0.30060
Cl         8.91000        1.99000        7.41000 0.30060

