%Mem = 2GB
%nproc=16
# b3lyp/6-31g* td 

Butadiene tddft 

0 1
C         11.22000       12.31000       11.07000 
H         12.15000       12.37000       10.51000 
C         11.48000       11.54000       12.26000 
H         10.66000       11.59000       12.98000 
C         12.52000       10.81000       12.63000 
H         13.31000       10.82000       11.88000 
H         12.65000       10.22000       13.53000 
C         10.01000       12.75000       10.73000 
H          9.14000       12.46000       11.31000 
H          9.78000       13.24000        9.79000 
  
C          4.84000       15.72000        9.25000 -0.302700
H          5.27000       15.57000        8.26000 0.00070
Cl         5.72000       16.83000       10.29000 0.30060
Cl         3.20000       16.40000        8.98000 0.30060
Cl         4.59000       14.07000        9.92000 0.30060
C         21.25000       12.62000        9.38000 -0.302700
H         22.12000       12.28000        8.81000 0.00070
Cl        20.31000       11.18000        9.84000 0.30060
Cl        21.85000       13.36000       10.79000 0.30060
Cl        20.16000       13.73000        8.47000 0.30060
C         15.69000       19.48000       13.89000 -0.302700
H         16.45000       18.72000       13.72000 0.00070
Cl        14.40000       19.50000       12.63000 0.30060
Cl        15.01000       19.10000       15.49000 0.30060
Cl        16.60000       20.99000       14.08000 0.30060
C         16.42000        5.56000       17.99000 -0.302700
H         15.55000        6.21000       17.88000 0.00070
Cl        15.78000        3.86000       17.92000 0.30060
Cl        17.68000        5.77000       16.75000 0.30060
Cl        17.18000        5.84000       19.57000 0.30060
C          5.95000        8.49000        2.68000 -0.302700
H          5.72000        7.77000        1.89000 0.00070
Cl         6.68000       10.01000        2.10000 0.30060
Cl         4.40000        9.03000        3.28000 0.30060
Cl         6.93000        7.72000        3.84000 0.30060
C          9.43000        2.45000        9.14000 -0.302700
H          9.71000        1.47000        8.75000 0.00070
Cl        10.21000        2.87000       10.68000 0.30060
Cl         9.88000        3.52000        7.82000 0.30060
Cl         7.69000        2.37000        9.21000 0.30060
C          6.41000        5.81000       10.13000 -0.302700
H          6.30000        4.75000        9.93000 0.00070
Cl         7.44000        5.98000       11.60000 0.30060
Cl         7.19000        6.64000        8.75000 0.30060
Cl         4.78000        6.49000       10.17000 0.30060
C         14.57000        5.36000       13.18000 -0.302700
H         15.50000        4.94000       12.80000 0.00070
Cl        13.54000        6.16000       11.99000 0.30060
Cl        13.44000        4.09000       13.80000 0.30060
Cl        14.99000        6.46000       14.53000 0.30060
C         11.09000       11.86000       21.57000 -0.302700
H         11.65000       12.60000       20.99000 0.00070
Cl        11.91000       11.89000       23.15000 0.30060
Cl         9.42000       12.49000       21.66000 0.30060
Cl        11.12000       10.25000       20.71000 0.30060
C         17.10000       13.04000       12.47000 -0.302700
H         16.54000       13.56000       13.25000 0.00070
Cl        18.37000       14.15000       11.92000 0.30060
Cl        18.05000       11.76000       13.26000 0.30060
Cl        16.17000       12.44000       11.11000 0.30060
C          9.95000        7.68000       13.18000 -0.302700
H          9.33000        6.80000       13.39000 0.00070
Cl         9.12000        9.18000       13.51000 0.30060
Cl        11.36000        7.40000       14.15000 0.30060
Cl        10.31000        7.61000       11.46000 0.30060
C         19.91000       12.50000       17.62000 -0.302700
H         20.22000       11.67000       18.26000 0.00070
Cl        20.39000       14.11000       18.17000 0.30060
Cl        20.73000       12.06000       16.14000 0.30060
Cl        18.14000       12.44000       17.39000 0.30060
C         11.97000        9.71000        6.79000 -0.302700
H         11.83000        8.84000        6.15000 0.00070
Cl        13.61000       10.37000        6.62000 0.30060
Cl        10.83000       11.02000        6.31000 0.30060
Cl        11.84000        9.11000        8.44000 0.30060
C          9.47000       17.55000        7.23000 -0.302700
H          8.76000       16.89000        6.73000 0.00070
Cl         8.45000       18.91000        7.82000 0.30060
Cl        10.17000       16.82000        8.74000 0.30060
Cl        10.69000       18.12000        6.15000 0.30060
C          5.30000       14.42000       19.45000 -0.302700
H          4.62000       15.10000       19.97000 0.00070
Cl         5.80000       13.26000       20.66000 0.30060
Cl         4.43000       13.74000       18.02000 0.30060
Cl         6.65000       15.45000       18.86000 0.30060
C         14.71000       14.74000        7.95000 -0.302700
H         14.87000       15.17000        8.94000 0.00070
Cl        16.27000       14.06000        7.54000 0.30060
Cl        13.43000       13.49000        8.13000 0.30060
Cl        14.33000       15.90000        6.70000 0.30060
C          7.70000        8.93000       21.03000 -0.302700
H          8.63000        9.01000       21.61000 0.00070
Cl         7.94000        9.61000       19.37000 0.30060
Cl         7.44000        7.13000       20.85000 0.30060
Cl         6.43000        9.64000       22.03000 0.30060
C         13.72000       19.75000        8.46000 -0.302700
H         14.59000       20.32000        8.80000 0.00070
Cl        14.00000       19.46000        6.73000 0.30060
Cl        13.39000       18.34000        9.57000 0.30060
Cl        12.26000       20.76000        8.62000 0.30060
C         14.21000        9.43000        2.19000 -0.302700
H         14.20000       10.50000        2.41000 0.00070
Cl        14.45000        9.34000        0.40000 0.30060
Cl        15.45000        8.72000        3.09000 0.30060
Cl        12.57000        8.94000        2.58000 0.30060
C          6.30000       16.75000        4.70000 -0.302700
H          6.20000       17.47000        5.52000 0.00070
Cl         7.43000       17.72000        3.65000 0.30060
Cl         6.94000       15.21000        5.41000 0.30060
Cl         4.78000       16.50000        3.83000 0.30060
C          5.65000        8.48000       17.26000 -0.302700
H          6.01000        8.82000       18.24000 0.00070
Cl         7.09000        8.20000       16.26000 0.30060
Cl         4.74000        6.93000       17.46000 0.30060
Cl         4.55000        9.75000       16.68000 0.30060
C         13.80000       13.61000        3.35000 -0.302700
H         13.57000       14.39000        4.08000 0.00070
Cl        12.37000       12.59000        3.01000 0.30060
Cl        14.36000       14.45000        1.87000 0.30060
Cl        15.15000       12.63000        3.89000 0.30060
C         18.73000        9.44000        5.30000 -0.302700
H         19.39000        8.81000        4.69000 0.00070
Cl        18.06000       10.73000        4.21000 0.30060
Cl        17.41000        8.32000        5.79000 0.30060
Cl        19.57000       10.10000        6.70000 0.30060
C          5.01000        9.06000       12.24000 -0.302700
H          5.72000        8.56000       11.57000 0.00070
Cl         3.61000        9.70000       11.23000 0.30060
Cl         4.50000        8.04000       13.58000 0.30060
Cl         6.02000       10.39000       12.85000 0.30060
C         17.97000       18.68000        9.77000 -0.302700
H         17.18000       18.06000       10.20000 0.00070
Cl        17.27000       19.30000        8.28000 0.30060
Cl        18.27000       19.98000       11.01000 0.30060
Cl        19.33000       17.55000        9.54000 0.30060
C          8.15000       20.57000       12.36000 -0.302700
H          8.16000       20.83000       13.42000 0.00070
Cl         7.79000       22.08000       11.42000 0.30060
Cl         9.78000       19.92000       11.83000 0.30060
Cl         6.89000       19.35000       12.01000 0.30060
C         19.56000        5.71000       12.28000 -0.302700
H         20.49000        5.70000       12.85000 0.00070
Cl        20.23000        5.78000       10.60000 0.30060
Cl        18.49000        4.34000       12.33000 0.30060
Cl        18.71000        7.17000       12.69000 0.30060
C          6.41000       10.84000        7.80000 -0.302700
H          6.38000       11.93000        7.73000 0.00070
Cl         7.27000       10.21000        6.43000 0.30060
Cl         7.13000       10.21000        9.31000 0.30060
Cl         4.66000       10.35000        7.77000 0.30060
C         19.09000       16.99000       16.54000 -0.302700
H         19.53000       16.02000       16.78000 0.00070
Cl        17.80000       17.29000       17.76000 0.30060
Cl        20.21000       18.36000       16.75000 0.30060
Cl        18.46000       16.96000       14.81000 0.30060
C         11.41000       17.56000       17.37000 -0.302700
H         11.40000       18.15000       18.29000 0.00070
Cl        10.19000       16.28000       17.78000 0.30060
Cl        11.11000       18.46000       15.82000 0.30060
Cl        13.14000       16.85000       17.36000 0.30060
C         16.67000        4.39000        7.86000 -0.302700
H         16.66000        4.40000        6.76000 0.00070
Cl        14.92000        4.27000        8.36000 0.30060
Cl        17.68000        3.04000        8.46000 0.30060
Cl        17.40000        5.95000        8.41000 0.30060
C          6.85000       13.87000       14.78000 -0.302700
H          5.85000       14.30000       14.94000 0.00070
Cl         6.94000       12.37000       15.73000 0.30060
Cl         7.28000       13.61000       13.03000 0.30060
Cl         7.96000       15.02000       15.51000 0.30060
C         12.37000        5.68000        4.77000 -0.302700
H         12.19000        4.67000        5.15000 0.00070
Cl        10.86000        6.63000        5.06000 0.30060
Cl        13.88000        6.34000        5.58000 0.30060
Cl        12.75000        5.51000        3.07000 0.30060
C         14.30000        9.45000       17.90000 -0.302700
H         13.56000       10.21000       18.14000 0.00070
Cl        14.80000        9.54000       16.25000 0.30060
Cl        15.70000        9.68000       19.02000 0.30060
Cl        13.52000        7.87000       18.17000 0.30060
C          2.55000       13.08000       13.32000 -0.302700
H          3.23000       12.25000       13.10000 0.00070
Cl         1.44000       13.31000       11.95000 0.30060
Cl         1.66000       12.64000       14.78000 0.30060
Cl         3.63000       14.50000       13.62000 0.30060
C         10.39000       12.73000       17.02000 -0.302700
H         10.21000       13.58000       16.36000 0.00070
Cl        10.21000       11.24000       16.05000 0.30060
Cl        12.13000       13.02000       17.52000 0.30060
Cl         9.34000       12.96000       18.48000 0.30060
C          3.59000        5.53000        5.65000 -0.302700
H          2.63000        5.36000        6.16000 0.00070
Cl         4.69000        6.80000        6.31000 0.30060
Cl         4.45000        4.03000        5.99000 0.30060
Cl         3.41000        5.73000        3.91000 0.30060
C         13.22000       15.17000       12.66000 -0.302700
H         12.28000       14.66000       12.45000 0.00070
Cl        14.43000       15.21000       11.32000 0.30060
Cl        12.64000       16.87000       12.84000 0.30060
Cl        13.67000       14.48000       14.26000 0.30060
C         10.07000        6.03000       18.14000 -0.302700
H          9.26000        5.73000       18.80000 0.00070
Cl        11.60000        5.26000       18.77000 0.30060
Cl         9.81000        5.44000       16.52000 0.30060
Cl        10.07000        7.84000       18.13000 0.30060

%Mem = 2GB
%nproc=16
# b3lyp/6-31g* td 

Butadiene tddft 

0 1
C         11.22000       12.31000       11.07000 
H         12.15000       12.37000       10.51000 
C         11.48000       11.54000       12.26000 
H         10.66000       11.59000       12.98000 
C         12.52000       10.81000       12.63000 
H         13.31000       10.82000       11.88000 
H         12.65000       10.22000       13.53000 
C         10.01000       12.75000       10.73000 
H          9.14000       12.46000       11.31000 
H          9.78000       13.24000        9.79000 
  
C          4.84000       15.72000        9.25000 -0.302700
H          5.27000       15.57000        8.26000 0.00070
Cl         5.72000       16.83000       10.29000 0.30060
Cl         3.20000       16.40000        8.98000 0.30060
Cl         4.59000       14.07000        9.92000 0.30060
C         21.25000       12.62000        9.38000 -0.302700
H         22.12000       12.28000        8.81000 0.00070
Cl        20.31000       11.18000        9.84000 0.30060
Cl        21.85000       13.36000       10.79000 0.30060
Cl        20.16000       13.73000        8.47000 0.30060
C         15.69000       19.48000       13.89000 -0.302700
H         16.45000       18.72000       13.72000 0.00070
Cl        14.40000       19.50000       12.63000 0.30060
Cl        15.01000       19.10000       15.49000 0.30060
Cl        16.60000       20.99000       14.08000 0.30060
C         16.42000        5.56000       17.99000 -0.302700
H         15.55000        6.21000       17.88000 0.00070
Cl        15.78000        3.86000       17.92000 0.30060
Cl        17.68000        5.77000       16.75000 0.30060
Cl        17.18000        5.84000       19.57000 0.30060
C          5.95000        8.49000        2.68000 -0.302700
H          5.72000        7.77000        1.89000 0.00070
Cl         6.68000       10.01000        2.10000 0.30060
Cl         4.40000        9.03000        3.28000 0.30060
Cl         6.93000        7.72000        3.84000 0.30060
C          9.43000        2.45000        9.14000 -0.302700
H          9.71000        1.47000        8.75000 0.00070
Cl        10.21000        2.87000       10.68000 0.30060
Cl         9.88000        3.52000        7.82000 0.30060
Cl         7.69000        2.37000        9.21000 0.30060
C          6.41000        5.81000       10.13000 -0.302700
H          6.30000        4.75000        9.93000 0.00070
Cl         7.44000        5.98000       11.60000 0.30060
Cl         7.19000        6.64000        8.75000 0.30060
Cl         4.78000        6.49000       10.17000 0.30060
C         14.57000        5.36000       13.18000 -0.302700
H         15.50000        4.94000       12.80000 0.00070
Cl        13.54000        6.16000       11.99000 0.30060
Cl        13.44000        4.09000       13.80000 0.30060
Cl        14.99000        6.46000       14.53000 0.30060
C         11.09000       11.86000       21.57000 -0.302700
H         11.65000       12.60000       20.99000 0.00070
Cl        11.91000       11.89000       23.15000 0.30060
Cl         9.42000       12.49000       21.66000 0.30060
Cl        11.12000       10.25000       20.71000 0.30060
C         17.10000       13.04000       12.47000 -0.302700
H         16.54000       13.56000       13.25000 0.00070
Cl        18.37000       14.15000       11.92000 0.30060
Cl        18.05000       11.76000       13.26000 0.30060
Cl        16.17000       12.44000       11.11000 0.30060
C          9.95000        7.68000       13.18000 -0.302700
H          9.33000        6.80000       13.39000 0.00070
Cl         9.12000        9.18000       13.51000 0.30060
Cl        11.36000        7.40000       14.15000 0.30060
Cl        10.31000        7.61000       11.46000 0.30060
C         19.91000       12.50000       17.62000 -0.302700
H         20.22000       11.67000       18.26000 0.00070
Cl        20.39000       14.11000       18.17000 0.30060
Cl        20.73000       12.06000       16.14000 0.30060
Cl        18.14000       12.44000       17.39000 0.30060
C         11.97000        9.71000        6.79000 -0.302700
H         11.83000        8.84000        6.15000 0.00070
Cl        13.61000       10.37000        6.62000 0.30060
Cl        10.83000       11.02000        6.31000 0.30060
Cl        11.84000        9.11000        8.44000 0.30060
C          9.47000       17.55000        7.23000 -0.302700
H          8.76000       16.89000        6.73000 0.00070
Cl         8.45000       18.91000        7.82000 0.30060
Cl        10.17000       16.82000        8.74000 0.30060
Cl        10.69000       18.12000        6.15000 0.30060
C          5.30000       14.42000       19.45000 -0.302700
H          4.62000       15.10000       19.97000 0.00070
Cl         5.80000       13.26000       20.66000 0.30060
Cl         4.43000       13.74000       18.02000 0.30060
Cl         6.65000       15.45000       18.86000 0.30060
C         14.71000       14.74000        7.95000 -0.302700
H         14.87000       15.17000        8.94000 0.00070
Cl        16.27000       14.06000        7.54000 0.30060
Cl        13.43000       13.49000        8.13000 0.30060
Cl        14.33000       15.90000        6.70000 0.30060
C          7.70000        8.93000       21.03000 -0.302700
H          8.63000        9.01000       21.61000 0.00070
Cl         7.94000        9.61000       19.37000 0.30060
Cl         7.44000        7.13000       20.85000 0.30060
Cl         6.43000        9.64000       22.03000 0.30060
C         13.72000       19.75000        8.46000 -0.302700
H         14.59000       20.32000        8.80000 0.00070
Cl        14.00000       19.46000        6.73000 0.30060
Cl        13.39000       18.34000        9.57000 0.30060
Cl        12.26000       20.76000        8.62000 0.30060
C         14.21000        9.43000        2.19000 -0.302700
H         14.20000       10.50000        2.41000 0.00070
Cl        14.45000        9.34000        0.40000 0.30060
Cl        15.45000        8.72000        3.09000 0.30060
Cl        12.57000        8.94000        2.58000 0.30060
C          6.30000       16.75000        4.70000 -0.302700
H          6.20000       17.47000        5.52000 0.00070
Cl         7.43000       17.72000        3.65000 0.30060
Cl         6.94000       15.21000        5.41000 0.30060
Cl         4.78000       16.50000        3.83000 0.30060
C          5.65000        8.48000       17.26000 -0.302700
H          6.01000        8.82000       18.24000 0.00070
Cl         7.09000        8.20000       16.26000 0.30060
Cl         4.74000        6.93000       17.46000 0.30060
Cl         4.55000        9.75000       16.68000 0.30060
C         13.80000       13.61000        3.35000 -0.302700
H         13.57000       14.39000        4.08000 0.00070
Cl        12.37000       12.59000        3.01000 0.30060
Cl        14.36000       14.45000        1.87000 0.30060
Cl        15.15000       12.63000        3.89000 0.30060
C         18.73000        9.44000        5.30000 -0.302700
H         19.39000        8.81000        4.69000 0.00070
Cl        18.06000       10.73000        4.21000 0.30060
Cl        17.41000        8.32000        5.79000 0.30060
Cl        19.57000       10.10000        6.70000 0.30060
C          5.01000        9.06000       12.24000 -0.302700
H          5.72000        8.56000       11.57000 0.00070
Cl         3.61000        9.70000       11.23000 0.30060
Cl         4.50000        8.04000       13.58000 0.30060
Cl         6.02000       10.39000       12.85000 0.30060
C         17.97000       18.68000        9.77000 -0.302700
H         17.18000       18.06000       10.20000 0.00070
Cl        17.27000       19.30000        8.28000 0.30060
Cl        18.27000       19.98000       11.01000 0.30060
Cl        19.33000       17.55000        9.54000 0.30060
C          8.15000       20.57000       12.36000 -0.302700
H          8.16000       20.83000       13.42000 0.00070
Cl         7.79000       22.08000       11.42000 0.30060
Cl         9.78000       19.92000       11.83000 0.30060
Cl         6.89000       19.35000       12.01000 0.30060
C         19.56000        5.71000       12.28000 -0.302700
H         20.49000        5.70000       12.85000 0.00070
Cl        20.23000        5.78000       10.60000 0.30060
Cl        18.49000        4.34000       12.33000 0.30060
Cl        18.71000        7.17000       12.69000 0.30060
C          6.41000       10.84000        7.80000 -0.302700
H          6.38000       11.93000        7.73000 0.00070
Cl         7.27000       10.21000        6.43000 0.30060
Cl         7.13000       10.21000        9.31000 0.30060
Cl         4.66000       10.35000        7.77000 0.30060
C         19.09000       16.99000       16.54000 -0.302700
H         19.53000       16.02000       16.78000 0.00070
Cl        17.80000       17.29000       17.76000 0.30060
Cl        20.21000       18.36000       16.75000 0.30060
Cl        18.46000       16.96000       14.81000 0.30060
C         11.41000       17.56000       17.37000 -0.302700
H         11.40000       18.15000       18.29000 0.00070
Cl        10.19000       16.28000       17.78000 0.30060
Cl        11.11000       18.46000       15.82000 0.30060
Cl        13.14000       16.85000       17.36000 0.30060
C         16.67000        4.39000        7.86000 -0.302700
H         16.66000        4.40000        6.76000 0.00070
Cl        14.92000        4.27000        8.36000 0.30060
Cl        17.68000        3.04000        8.46000 0.30060
Cl        17.40000        5.95000        8.41000 0.30060
C          6.85000       13.87000       14.78000 -0.302700
H          5.85000       14.30000       14.94000 0.00070
Cl         6.94000       12.37000       15.73000 0.30060
Cl         7.28000       13.61000       13.03000 0.30060
Cl         7.96000       15.02000       15.51000 0.30060
C         12.37000        5.68000        4.77000 -0.302700
H         12.19000        4.67000        5.15000 0.00070
Cl        10.86000        6.63000        5.06000 0.30060
Cl        13.88000        6.34000        5.58000 0.30060
Cl        12.75000        5.51000        3.07000 0.30060
C         14.30000        9.45000       17.90000 -0.302700
H         13.56000       10.21000       18.14000 0.00070
Cl        14.80000        9.54000       16.25000 0.30060
Cl        15.70000        9.68000       19.02000 0.30060
Cl        13.52000        7.87000       18.17000 0.30060
C          2.55000       13.08000       13.32000 -0.302700
H          3.23000       12.25000       13.10000 0.00070
Cl         1.44000       13.31000       11.95000 0.30060
Cl         1.66000       12.64000       14.78000 0.30060
Cl         3.63000       14.50000       13.62000 0.30060
C         10.39000       12.73000       17.02000 -0.302700
H         10.21000       13.58000       16.36000 0.00070
Cl        10.21000       11.24000       16.05000 0.30060
Cl        12.13000       13.02000       17.52000 0.30060
Cl         9.34000       12.96000       18.48000 0.30060
C          3.59000        5.53000        5.65000 -0.302700
H          2.63000        5.36000        6.16000 0.00070
Cl         4.69000        6.80000        6.31000 0.30060
Cl         4.45000        4.03000        5.99000 0.30060
Cl         3.41000        5.73000        3.91000 0.30060
C         13.22000       15.17000       12.66000 -0.302700
H         12.28000       14.66000       12.45000 0.00070
Cl        14.43000       15.21000       11.32000 0.30060
Cl        12.64000       16.87000       12.84000 0.30060
Cl        13.67000       14.48000       14.26000 0.30060
C         10.07000        6.03000       18.14000 -0.302700
H          9.26000        5.73000       18.80000 0.00070
Cl        11.60000        5.26000       18.77000 0.30060
Cl         9.81000        5.44000       16.52000 0.30060
Cl        10.07000        7.84000       18.13000 0.30060

