--link1--
%mem=2GB
%chk=butadiene_scan_0007.chk
%nproc=8
#p Scan RB3LYP/6-31G(d)

Scan step 7     E=    -155.982721

0 1
     C            0.703510        0.489016       -0.210795
     H            0.976058        1.271713       -0.922310
     C           -0.707769        0.477755        0.233110
     H           -1.037574        1.333500        0.826659
     C           -1.609071       -0.435316       -0.138073
     H           -1.336870       -1.276101       -0.771235
     H           -2.644463       -0.378156        0.187804
     C            1.617776       -0.421413        0.133625
     H            1.383986       -1.225598        0.826868
     H            2.632182       -0.385610       -0.254991

