--link1--
%mem=2GB
%chk=butadiene_scan_0009.chk
%nproc=8
#p Scan RB3LYP/6-31G(d)

Scan step 9     E=    -155.980090

0 1
     C            0.552478       -0.498237        0.373947
     H            1.407326       -0.276466        1.015967
     C           -0.552478        0.498237        0.373947
     H           -1.407326        0.276466        1.015967
     C           -0.552478        1.630590       -0.331661
     H            0.275482        1.899405       -0.983552
     H           -1.385371        2.327540       -0.286135
     C            0.552478       -1.630590       -0.331661
     H           -0.275482       -1.899405       -0.983552
     H            1.385371       -2.327540       -0.286135

