--link1--
%mem=2GB
%chk=butadiene_scan_0008.chk
%nproc=8
#p Scan RB3LYP/6-31G(d)

Scan step 8     E=    -155.980638

0 1
     C            0.570062       -0.476492        0.338320
     H            1.477393       -0.154856        0.852363
     C           -0.570062        0.476492        0.338320
     H           -1.477393        0.154856        0.852363
     C           -0.570062        1.652568       -0.293522
     H            0.300615        2.011343       -0.838029
     H           -1.440821        2.302776       -0.283121
     C            0.570062       -1.652568       -0.293522
     H           -0.300615       -2.011343       -0.838029
     H            1.440821       -2.302776       -0.283121

