--link1--
%mem=2GB
%chk=butadiene_scan_0002.chk
%nproc=8
#p Scan RB3LYP/6-31G(d)

Scan step 2     E=    -155.991795

0 1
     C            0.609901        0.399317        0.053938
     H            0.478266        1.481011        0.096388
     C           -0.609901       -0.399317        0.053938
     H           -0.478266       -1.481011        0.096388
     C           -1.846189        0.109773       -0.042572
     H           -2.017408        1.182672       -0.098833
     H           -2.726596       -0.525317       -0.065749
     C            1.846189       -0.109773       -0.042572
     H            2.017408       -1.182672       -0.098833
     H            2.726596        0.525317       -0.065749

