%Mem = 2GB
%nproc=16
# b3lyp/6-31g* td 

Butadiene tddft 100

0 1
C          0.53900       -0.51600        0.08900
H          1.58900       -0.26800        0.24600
C         -0.37000        0.48900       -0.28600
H         -1.25600        0.10400       -0.75100
C         -0.23800        1.82500       -0.05100
H          0.70800        2.11700        0.39900
H         -1.01100        2.53200       -0.29400
C          0.08500       -1.79000        0.24500
H         -0.99500       -1.96400       -0.02800
H          0.78500       -2.60900        0.45800

