%Mem = 2GB
%nproc=16
# b3lyp/6-31g* td 

Butadiene tddft 100

0 1
C          0.45700        0.60100       -0.17700
H          0.86200        1.26200        0.56800
C         -0.56200       -0.39900        0.21900
H         -1.16900       -0.78400       -0.57100
C         -0.80600       -0.94300        1.40400
H         -0.12400       -0.84500        2.26500
H         -1.57900       -1.72100        1.37800
C          0.90800        0.76200       -1.42100
H          0.47600        0.25900       -2.28200
H          1.56300        1.58800       -1.65500

