%Mem = 2GB
%nproc=16
# b3lyp/6-31g* td 

Butadiene tddft 100

0 1
C          0.21100       -0.41600       -0.53200
H         -0.32500       -1.33500       -0.73300
C         -0.23500        0.45600        0.52300
H          0.30800        1.40000        0.59800
C         -1.14000        0.10400        1.48500
H         -1.61200       -0.87000        1.48600
H         -1.29100        0.59700        2.47500
C          1.12900       -0.11600       -1.49300
H          1.77900        0.78600       -1.51400
H          1.56700       -0.89500       -2.09700

