%Mem = 2GB
%nproc=16
# b3lyp/6-31g* td 

Butadiene tddft 100

0 1
C          0.03000        0.49400       -0.56300
H         -0.11100        0.09200       -1.59300
C          0.02300       -0.50300        0.49000
H          0.44700       -0.12800        1.46900
C         -0.50600       -1.76100        0.41700
H         -0.87800       -2.22300       -0.51700
H         -0.42800       -2.41200        1.30300
C          0.42900        1.77400       -0.35200
H          0.53000        2.30800        0.63100
H          0.73500        2.32200       -1.19900

