%Mem = 2GB
%nproc=16
# b3lyp/6-31g* td 

Butadiene tddft 100

0 1
C          0.14300        0.21300       -0.68000
H         -0.62200        0.73300       -1.26400
C         -0.10800       -0.26600        0.75800
H          0.77100       -0.77300        1.14500
C         -1.29200       -0.11100        1.36100
H         -2.02900        0.37100        0.86800
H         -1.62100       -0.55700        2.27200
C          1.25300        0.15200       -1.40400
H          2.17800       -0.31400       -1.12300
H          1.37400        0.68300       -2.31500

