%Mem = 2GB
%nproc=16
# b3lyp/6-31g* td 

Butadiene tddft 100

0 1
C         -0.08600        0.04900        0.68700
H          0.85000        0.04400        1.25500
C          0.00300       -0.10200       -0.78100
H         -0.95300       -0.01200       -1.34400
C          1.22900       -0.37300       -1.28500
H          2.08500       -0.32800       -0.74800
H          1.40500       -0.48300       -2.36600
C         -1.15600        0.43000        1.36900
H         -2.11000        0.21100        0.85800
H         -1.16000        0.52600        2.47300

