%Mem = 2GB
%nproc=16
# b3lyp/6-31g* td 

Butadiene tddft 100

0 1
C          0.53400       -0.49500        0.11500
H          0.69500       -0.84600        1.11200
C         -0.47100        0.52500       -0.06700
H         -0.56300        0.98800       -1.12500
C         -1.23600        1.08800        0.88000
H         -1.29500        0.81800        1.92200
H         -1.95200        1.80500        0.73800
C          1.18600       -1.12900       -0.92700
H          1.09200       -0.71300       -1.89800
H          1.86700       -1.92700       -0.76300

