%Mem = 2GB
%nproc=16
# b3lyp/6-31g* td 

Butadiene tddft 100

0 1
C         -0.13300       -0.14400        0.66800
H          0.64700       -0.36100        1.33700
C          0.09100        0.03400       -0.73500
H         -0.76000        0.17000       -1.35900
C          1.37600        0.11400       -1.15600
H          2.24500       -0.02700       -0.50800
H          1.49700        0.41100       -2.18600
C         -1.32800       -0.01500        1.20900
H         -2.29200        0.21000        0.61700
H         -1.41000       -0.26700        2.26800

