%Mem = 2GB
%nproc=16
# b3lyp/6-31g* td 

Butadiene tddft 100

0 1
C          0.22400        0.56500        0.39800
H          1.13800        0.44700        1.02800
C         -0.30300       -0.62800       -0.30000
H         -1.34000       -0.70500       -0.62900
C          0.38800       -1.71000       -0.53900
H          1.45100       -1.80400       -0.39100
H          0.05900       -2.56500       -1.12900
C         -0.32300        1.77200        0.45300
H         -1.28500        2.10800        0.06700
H          0.14600        2.53800        0.91200

