%Mem = 2GB
%nproc=16
# b3lyp/6-31g* td 

Butadiene tddft 100

0 1
C          0.61100        0.12700       -0.59400
H          1.25600       -0.65300       -0.95300
C         -0.46000       -0.21200        0.48700
H         -0.89400        0.72000        0.91300
C         -0.96900       -1.38000        0.91800
H         -0.60700       -2.31100        0.58100
H         -1.65000       -1.31500        1.71900
C          0.82700        1.42900       -0.84600
H          0.15700        2.13200       -0.36400
H          1.62900        1.85700       -1.47600

