%Mem = 2GB
%nproc=16
# b3lyp/6-31g* td 

Butadiene tddft 100

0 1
C          0.03100        0.50600        0.50900
H          1.08900        0.91400        0.64200
C         -0.07600       -0.48600       -0.59900
H         -1.06600       -0.98000       -0.63600
C          0.98100       -0.93300       -1.23500
H          1.91600       -0.44700       -1.11200
H          0.93000       -1.71500       -1.95000
C         -0.94200        0.90500        1.31900
H         -1.91400        0.56800        1.10400
H         -0.88400        1.74900        2.02400

