%Mem = 2GB
%nproc=16
# b3lyp/6-31g* td 

Butadiene tddft 100

0 1
C         -0.57500       -0.03000        0.48300
H         -1.09300       -0.97900        0.67400
C          0.65400       -0.03700       -0.28100
H          1.11000        0.96100       -0.52800
C          1.09300       -1.07000       -0.99700
H          0.75500       -2.09500       -0.70800
H          2.00100       -0.97400       -1.59900
C         -1.17900        1.13000        0.80300
H         -0.66700        2.12300        0.64800
H         -2.02600        1.04200        1.40800

