%Mem = 2GB
%nproc=16
# b3lyp/6-31g* td 

Butadiene tddft 100

0 1
C         -0.09000       -0.23900        0.68600
H         -0.07300        0.44200        1.55400
C          0.23700        0.21700       -0.62000
H          0.33800       -0.50400       -1.40100
C          0.31900        1.53100       -0.92300
H          0.18000        2.32800       -0.22200
H          0.58000        1.86000       -1.90400
C         -0.45700       -1.50800        0.86800
H         -0.35200       -2.21900        0.07200
H         -0.78200       -1.93500        1.76900

