%Mem = 2GB
%nproc=16
# b3lyp/6-31g* td 

Butadiene tddft 100

0 1
C          0.43900       -0.54300        0.17000
H          0.77900       -0.50800        1.22600
C         -0.37400        0.58600       -0.17900
H         -0.71300        0.55700       -1.24900
C         -0.78800        1.59500        0.60600
H         -0.31300        1.70600        1.64900
H         -1.58200        2.21400        0.32100
C          0.73000       -1.62600       -0.61000
H          0.38600       -1.75500       -1.62400
H          1.36700       -2.37100       -0.17900

