%Mem = 2GB
%nproc=16
# b3lyp/6-31g* td 

Butadiene tddft 100

0 1
C         -0.44800        0.58400        0.19200
H         -0.46600        1.52000       -0.38800
C          0.25700       -0.56300       -0.29600
H          0.15400       -1.47800        0.31800
C          1.06500       -0.56300       -1.37100
H          1.38900        0.29000       -1.99600
H          1.49100       -1.47000       -1.78400
C         -0.89500        0.53900        1.46800
H         -1.00200       -0.34700        2.06400
H         -1.31300        1.52200        1.87200

