%Mem = 2GB
%nproc=16
# b3lyp/6-31g* td 

Butadiene tddft 100

0 1
C          0.11400        0.24000       -0.69400
H         -0.74200        0.08600       -1.35500
C         -0.11000       -0.18200        0.70600
H          0.65100       -0.14200        1.46300
C         -1.23100       -0.82400        1.16600
H         -2.16600       -0.94500        0.57400
H         -1.18600       -1.21400        2.18800
C          1.22900        0.77000       -1.18100
H          2.21600        0.97700       -0.64800
H          1.20500        1.18500       -2.17900

