%Mem = 2GB
%nproc=16
# b3lyp/6-31g* td 

Butadiene tddft 100

0 1
C          0.41100       -0.53800        0.29000
H          1.23900       -0.32700        0.93500
C         -0.34500        0.50600       -0.29400
H         -1.14800        0.14700       -0.89100
C         -0.26800        1.87200        0.03500
H          0.60000        2.24500        0.61300
H         -0.96500        2.61900       -0.36700
C          0.20500       -1.82800       -0.01400
H         -0.44400       -2.14500       -0.89300
H          0.69100       -2.68400        0.41900

