%Mem = 2GB
%nproc=16
# b3lyp/6-31g* td 

Butadiene tddft 100

0 1
C         -0.62900       -0.23900        0.23900
H         -1.37300       -0.45600       -0.52300
C          0.59700        0.30100       -0.21900
H          1.23100        0.68000        0.54400
C          0.93600        0.46700       -1.51000
H          0.29200        0.13100       -2.28000
H          1.80700        1.04100       -1.88400
C         -0.89500       -0.54500        1.49600
H         -0.19100       -0.44200        2.30000
H         -1.86700       -0.77000        1.77000

