--link1--
%mem=2GB
%chk=butadiene_scan_0009.chk
%nproc=8
#p Scan RB3LYP/6-31G(d)

Scan step 9     E=    -155.986385

0 1
     C            0.725024        0.549615       -0.117070
     H            1.144277        1.486113       -0.487478
     C           -0.725613        0.547755        0.123213
     H           -1.151995        1.489861        0.470699
     C           -1.545885       -0.488611       -0.089996
     H           -1.181816       -1.430801       -0.492100
     H           -2.609256       -0.424727        0.122797
     C            1.547018       -0.486986        0.087822
     H            1.187725       -1.426671        0.500006
     H            2.607800       -0.424421       -0.137736

