--link1--
%mem=2GB
%chk=butadiene_scan_0005.chk
%nproc=8
#p Scan RB3LYP/6-31G(d)

Scan step 5     E=    -155.980500

0 1
     C            0.664175        0.355898        0.304365
     H            0.756777        1.298335        0.847180
     C           -0.663581       -0.310833        0.347537
     H           -0.722745       -1.239179        0.918146
     C           -1.751125        0.122802       -0.293812
     H           -1.740629        1.032524       -0.890008
     H           -2.694230       -0.414778       -0.240849
     C            1.747391       -0.156688       -0.283868
     H            1.717292       -1.105759       -0.814535
     H            2.702372        0.361780       -0.265269

