--link1--
%mem=2GB
%chk=butadiene_scanMM_0017.chk
%nproc=8
#p Scan RExternal='gromacs_link.sh  -p joyce.new.top'/ZDO

Scan step 17     E=       0.005767

0 1
     C            0.725637        0.578698       -0.073228
     H            1.193979        1.545931       -0.255504
     C           -0.725096        0.580549        0.062909
     H           -1.187447        1.542721        0.283256
     C           -1.496306       -0.510589       -0.050866
     H           -1.070781       -1.488836       -0.264656
     H           -2.575326       -0.463825        0.062833
     C            1.495351       -0.511916        0.054786
     H            1.065994       -1.491615        0.253749
     H            2.576068       -0.464828       -0.041285

