--link1--
%mem=2GB
%chk=butadiene_scanMM_0009.chk
%nproc=8
#p Scan RExternal='gromacs_link.sh  -p joyce.new.top'/ZDO

Scan step 9     E=       0.011901

0 1
     C            0.660013        0.383838       -0.302212
     H            0.778891        1.024509       -1.175995
     C           -0.659974        0.373754        0.314522
     H           -0.774848        0.973873        1.217177
     C           -1.704074       -0.330347       -0.146305
     H           -1.625527       -0.946393       -1.039648
     H           -2.670162       -0.313082        0.349450
     C            1.703670       -0.336024        0.134648
     H            1.622693       -0.987339        1.002390
     H            2.671147       -0.298895       -0.357293

