--link1--
%mem=2GB
%chk=butadiene_scanMM_0001.chk
%nproc=8
#p Scan RExternal='gromacs_link.sh  -p joyce.new.top'/ZDO

Scan step 1     E=      -0.000091

0 1
     C           -0.326073        0.651727        0.000000
     H           -1.416526        0.645378        0.000000
     C            0.326073       -0.651727        0.000000
     H            1.416526       -0.645378        0.000000
     C           -0.326073       -1.822966        0.000000
     H           -1.413010       -1.869223        0.000000
     H            0.201317       -2.772082        0.000000
     C            0.326073        1.822966        0.000000
     H            1.413010        1.869223        0.000000
     H           -0.201317        2.772082        0.000000

