--link1--
%mem=2GB
%chk=butadiene_scanMM_0004.chk
%nproc=8
#p Scan RExternal='gromacs_link.sh  -p joyce.new.top'/ZDO

Scan step 4     E=       0.002474

0 1
     C            0.616052        0.388498        0.157525
     H            0.508581        1.462505        0.309566
     C           -0.616344       -0.388714        0.158592
     H           -0.508180       -1.462963        0.307864
     C           -1.825697        0.114455       -0.128822
     H           -1.968028        1.174014       -0.330867
     H           -2.714321       -0.509333       -0.153922
     C            1.825815       -0.114269       -0.128823
     H            1.968655       -1.173764       -0.330842
     H            2.714333        0.509721       -0.152632

