--link1--
%mem=2GB
%chk=butadiene_scan_0011.chk
%nproc=8
#p Scan RB3LYP/6-31G(d)

Scan step 11     E=    -155.981715

0 1
     C            0.502213       -0.544837        0.441686
     H            1.235428       -0.518988        1.251210
     C           -0.502213        0.544837        0.441686
     H           -1.235428        0.518988        1.251210
     C           -0.502213        1.583302       -0.397103
     H            0.234944        1.672589       -1.191270
     H           -1.247785        2.371217       -0.327438
     C            0.502213       -1.583302       -0.397103
     H           -0.234944       -1.672589       -1.191270
     H            1.247785       -2.371217       -0.327438

