--link1--
%mem=2GB
%chk=butadiene_scan_0013.chk
%nproc=8
#p Scan RB3LYP/6-31G(d)

Scan step 13     E=    -155.984511

0 1
     C            0.430574       -0.598558        0.501917
     H            1.046001       -0.746048        1.391770
     C           -0.430574        0.598558        0.501917
     H           -1.046001        0.746048        1.391770
     C           -0.430574        1.538436       -0.448720
     H            0.212680        1.460501       -1.321690
     H           -1.077505        2.409618       -0.389262
     C            0.430574       -1.538436       -0.448720
     H           -0.212680       -1.460501       -1.321690
     H            1.077505       -2.409618       -0.389262

