--link1--
%mem=2GB
%chk=butadiene_scan_0019.chk
%nproc=8
#p Scan RB3LYP/6-31G(d)

Scan step 19     E=    -155.985951

0 1
     C           -0.000000       -0.735667        0.563205
     H           -0.000153       -1.193782        1.551874
     C            0.000000        0.735667        0.563205
     H            0.000153        1.193782        1.551874
     C           -0.000000        1.546869       -0.503257
     H            0.000487        1.170987       -1.523472
     H           -0.000219        2.626591       -0.388092
     C            0.000000       -1.546869       -0.503257
     H           -0.000487       -1.170987       -1.523472
     H            0.000219       -2.626591       -0.388092

