--link1--
%mem=2GB
%chk=butadiene_scan_0010.chk
%nproc=8
#p Scan RB3LYP/6-31G(d)

Scan step 10     E=    -155.986313

0 1
     C            0.732515        0.559681       -0.068217
     H            1.183953        1.535088       -0.249986
     C           -0.732168        0.560625        0.062300
     H           -1.179765        1.533697        0.264954
     C           -1.543930       -0.499211       -0.048822
     H           -1.170166       -1.491464       -0.289331
     H           -2.617407       -0.404734        0.085526
     C            1.543279       -0.500107        0.051035
     H            1.167064       -1.493532        0.282603
     H            2.618139       -0.404985       -0.071542

