%chk=butadiene_scan_cam.chk
# opt=modredundant cam-b3lyp/6-31+g geom=connectivity

Title Card Required

0 1
 C                  0.63190293    0.43999850    0.00000000
 H                  0.53933015    1.50598644    0.00000000
 C                 -0.63190293   -0.43999850    0.00000000
 H                 -0.53933015   -1.50598644    0.00000000
 C                 -1.86089699    0.13108874    0.00000000
 H                 -1.95980160    1.19650785    0.00000000
 H                 -2.73534765   -0.48554410    0.00000000
 C                  1.86089699   -0.13108874    0.00000000
 H                  1.95980160   -1.19650785    0.00000000
 H                  2.73534765    0.48554410    0.00000000

 1 2 1.0 3 1.0 8 2.0
 2
 3 4 1.0 5 2.0
 4
 5 6 1.0 7 1.0
 6
 7
 8 9 1.0 10 1.0
 9
 10

D 5 3 1 8 S 18 10.000000

