%mem=2GB
%nproc=16
#p td B3LYP/6-31G*

Scan step 15     E=    -155.986288

0 1
     C            0.320075       -0.661991        0.543321
     H            0.791537       -0.963409        1.479873
     C           -0.320075        0.661991        0.543321
     H           -0.791537        0.963409        1.479873
     C           -0.320075        1.520632       -0.483574
     H            0.188788        1.291932       -1.416725
     H           -0.823318        2.481430       -0.421625
     C            0.320075       -1.520632       -0.483574
     H           -0.188788       -1.291932       -1.416725
     H            0.823318       -2.481430       -0.421625

