%mem=2GB
%nproc=16
#p td B3LYP/6-31G*

Scan step 10     E=    -155.980576

0 1
     C            0.529439       -0.520999        0.408286
     H            1.322756       -0.400376        1.149537
     C           -0.529439        0.520999        0.408286
     H           -1.322756        0.400376        1.149537
     C           -0.529439        1.607512       -0.366143
     H            0.252811        1.784334       -1.100462
     H           -1.319172        2.351656       -0.301931
     C            0.529439       -1.607512       -0.366143
     H           -0.252811       -1.784334       -1.100462
     H            1.319172       -2.351656       -0.301931

