%chk=/home/sonatak/tfm/butadiene.chk
# opt=(modredundant,verytight) b3lyp/6-31g* 
geom=connectivity Int=Ultrafine

Butadiene phi angle scan, 18times x 10degrees

0 1
 C                 -0.40056958    0.60878214    0.00000000
 H                 -1.48268366    0.47403358    0.00000000
 C                  0.40056958   -0.60878214    0.00000000
 H                  1.48268366   -0.47403358    0.00000000
 C                 -0.10907708   -1.84868354    0.00000000
 H                 -1.18299890   -2.02264814    0.00000000
 H                  0.52643731   -2.72907144    0.00000000
 C                  0.10907708    1.84868354    0.00000000
 H                  1.18299890    2.02264814    0.00000000
 H                 -0.52643731    2.72907144    0.00000000

 1 2 1.0 3 1.0 8 2.0
 2
 3 4 1.0 5 2.0
 4
 5 6 1.0 7 1.0
 6
 7
 8 9 1.0 10 1.0
 9
 10

D 5 3 1 8 S 18 10.000000

