--link1--
%mem=2GB
%chk=butadiene_scan_0016.chk
%nproc=8
#p Scan RB3LYP/6-31G(d)

Scan step 16     E=    -155.986486

0 1
     C            0.247901       -0.691978        0.554730
     H            0.625903       -1.057510        1.510127
     C           -0.247901        0.691978        0.554730
     H           -0.625903        1.057510        1.510127
     C           -0.247901        1.525044       -0.493830
     H            0.165553        1.234719       -1.456559
     H           -0.651626        2.530596       -0.418968
     C            0.247901       -1.525044       -0.493830
     H           -0.165553       -1.234719       -1.456559
     H            0.651626       -2.530596       -0.418968

