--link1--
%mem=2GB
%chk=butadiene_scan_0005.chk
%nproc=8
#p Scan RB3LYP/6-31G(d)

Scan step 5     E=    -155.987006

0 1
     C            0.594526       -0.429957        0.209142
     H            1.547647        0.061602        0.408543
     C           -0.594526        0.429957        0.209142
     H           -1.547647       -0.061602        0.408543
     C           -0.594526        1.714107       -0.169590
     H            0.326650        2.238167       -0.415757
     H           -1.513367        2.289946       -0.230102
     C            0.594526       -1.714107       -0.169590
     H           -0.326650       -2.238167       -0.415757
     H            1.513367       -2.289946       -0.230102

