--link1--
%mem=2GB
%chk=butadiene_scan_0014.chk
%nproc=8
#p Scan RB3LYP/6-31G(d)

Scan step 14     E=    -155.985618

0 1
     C            0.381106       -0.629705        0.525579
     H            0.930363       -0.857185        1.440955
     C           -0.381106        0.629705        0.525579
     H           -0.930363        0.857185        1.440955
     C           -0.381106        1.524986       -0.468509
     H            0.203058        1.368248       -1.371937
     H           -0.964249        2.439992       -0.411440
     C            0.381106       -1.524986       -0.468509
     H           -0.203058       -1.368248       -1.371937
     H            0.964249       -2.439992       -0.411440

