%chk=tddft0.chk
# b3lyp/6-31g* td opt

Butadiene tddft

0 1

